@relation 'tsunami_train-weka.filters.unsupervised.attribute.NumericToNominal-R13,15,17,19-weka.filters.unsupervised.attribute.Remove-R1-3,5-12,14,17-20'

@attribute distFromSource numeric
@attribute regionCode {30,40,50,60,71,73,74,75,76,77,80,81,82,83,84,85,86,87,88,89}
@attribute sourceCauseCode {0,1,3,4,5,6,9}
@attribute sourceEqMagnitude numeric
@attribute eqMagMb numeric
@attribute eqMagMs numeric
@attribute intensity numeric
@attribute eqDepth numeric
@attribute elevation numeric
@attribute logrunupHt {m,s,l}

@data
93.974771,85,1,9.1,7.2,8.3,8.530885,29,6,m
3625.880124,80,1,7.5,6.4,7.3,8.530885,71,6,s
105.809801,85,1,9.1,7.2,8.3,8.530885,29,9,l
9374.976591,82,1,7.7,6.5,7.5,8.530885,14,0,s
278.974426,85,1,7.4,6.3,7.2,10,56,0,s
15168.63401,88,1,8.1,6.88237,8.009683,8.530885,48,4,s
410.716676,85,1,9.1,7.2,8.3,8.530885,29,5,m
60.08779,89,1,8.8,7.2,8.5,9,22,10,l
3386.488973,85,1,8.8,7,8,8,35,10,s
1815.346491,60,1,9.1,7,8.8,8.530885,30,7,m
105.839584,85,1,9.1,7.2,8.3,8.530885,29,11,l
1500.484746,85,1,8.3,6.88237,8.009683,10,40,8,s
9.662783,85,3,7.5,6.9,7.2,9,10,5,m
2852.941384,85,1,9,6.88237,8.5,7,22,9,s
498.085947,85,1,9.1,7.2,8.3,8.530885,29,8,m
5373.642172,80,1,7.2,6.88237,7.2,10,20,11,s
402.642098,88,1,7.4,6.88237,8.009683,8.530885,26,0,s
75.233341,83,3,8.2,6.5,8.1,9,33,8,m
90.395301,85,3,7.5,6.9,7.2,9,10,9,l
251.991797,85,1,7.7,6.88237,8.009683,8.530885,40,26,s
16403.22901,86,1,8.3,6.88237,8.009683,9,22,0,s
286.583925,85,1,8.1,6.88237,8.3,9,45,53,m
3051.311745,85,1,7.6,6.88237,8.009683,7,32,0,s
206.350046,81,1,8.1,7.1,8.1,8.530885,18,22,l
3973.369408,85,1,8.7,7.7,7.8,6,30,0,s
521.194193,60,1,9.1,7,8.8,8.530885,30,0,m
120.622361,85,1,7.8,6.8,7.7,8,24,0,m
132.556953,85,1,9.1,7.2,8.3,8.530885,29,8,m
2725.499726,85,1,7.5,6.88237,7.5,7,30,647,s
1856.741723,85,1,8.3,7.3,8.1,9,14,91,s
17435.40081,84,1,8.3,6.88237,8.009683,9,22,7,s
204.331941,81,1,8.1,7.1,8.1,8.530885,18,18,m
2725.499726,81,1,6.9,6.88237,7.2,8.530885,12,647,m
125.131792,85,1,9.1,7.2,8.3,8.530885,29,8,m
13.319833,85,3,7.5,6.9,7.2,9,10,8,m
260.175115,85,1,8.4,6.88237,8.5,8.530885,15,48,m
75.216027,85,1,7.5,6.88237,8.009683,5,40,7,s
814.91989,85,1,9.1,7.2,8.3,8.530885,29,14,s
78.436151,88,1,7.2,6.3,7.1,8,15,91,s
3004.792963,89,1,8.2,6.88237,8.009683,8,25,15,s
187.721147,88,1,7.6,5.4,7.7,8.530885,30,7,l
180.302681,85,1,9.1,7.2,8.3,8.530885,29,7,l
1289.257242,81,1,7.6,6.88237,8.009683,7,32,0,s
209.294202,85,1,9.1,7.2,8.3,8.530885,29,5,l
126.683667,85,1,9.1,7.2,8.3,8.530885,29,10,l
9427.918016,88,1,7.9,6.4,7.4,8,24,12,s
438.457184,60,1,8.3,7,8,8.530885,25,7,m
8278.735155,88,1,8.4,6.88237,8.5,8.530885,15,0,s
3785.279398,80,3,8.6,6.88237,7.3,6,15,0,l
9579.990506,81,1,9.1,7.2,8.3,8.530885,29,9,m
145.387778,89,1,7.5,5.8,6.6,4,10,8,s
820.343504,88,1,8.2,6.88237,8.009683,9,47,23.263212,s
163.006369,85,1,9.1,7.2,8.3,8.530885,29,11,l
13170.25599,89,1,9.1,7.2,8.3,8.530885,29,5,s
65.424268,83,3,7.5,6.88237,8.009683,9,20,17,m
15.380173,80,3,7.7,6,7.2,9,2,0,l
2594.626319,73,1,8.5,6.88237,8.5,9,26.742663,39,s
2493.44286,60,1,9.1,7,8.8,8.530885,30,0,m
3960.392981,85,1,8.7,7.7,7.8,6,30,9,s
168.896053,81,1,8.1,7.1,8.1,8.530885,18,9,m
98.546125,85,3,7.5,6.9,7.2,9,10,0,m
124.502304,85,1,9.1,7.2,8.3,8.530885,29,10,l
70.190493,85,1,6.8,6.88237,8.009683,8.530885,36,91,s
5762.763793,85,1,7.9,5.8,7.9,8.530885,33,0,s
187.268163,85,1,6.4,6,6.4,8.530885,10,0,s
516.128856,85,1,9.1,7.2,8.3,8.530885,29,81,s
10794.29133,87,1,8.4,6.7,8.2,8,33,0,s
241.128834,60,1,7.8,5.7,7.2,8.530885,18,0,m
195.360368,60,1,7.7,6.1,7.2,8.530885,20,14,l
1587.4294,85,1,8.3,6.5,7.8,8.530885,10,0,s
181.744785,89,1,8.3,6.88237,8.009683,9,22,15,m
178.756304,85,1,7.8,6.8,7.7,8,24,0,m
95.045272,85,1,9.1,7.2,8.3,8.530885,29,8,l
1586.018508,87,1,9,6.88237,8.5,7,22,8,s
1947.070848,81,1,7.8,6.88237,7.8,7,26.742663,18,s
81.506065,85,1,7.5,6.88237,8.009683,5,40,27,s
158.890707,88,1,7.2,6.2,7.1,4,10,0,s
205.686694,85,1,9.1,7.2,8.3,8.530885,29,6,l
261.336955,50,3,7.1,6.5,7.7,10,10,30,s
89.55933,85,1,9.1,7.2,8.3,8.530885,29,12,l
236.991179,85,1,8.2,6.88237,8.009683,6,7,0,s
11189.90327,81,1,9.5,6.88237,8.5,12,33,8,s
202.279042,60,1,7.7,6.1,7.2,8.530885,20,11,m
38.910851,89,1,8.8,7.2,8.5,9,22,0,l
18.65668,82,1,7.1,6.4,7.1,8.530885,25,16,l
152.971553,85,1,6.9,6.88237,8.009683,8.530885,10,0,s
2398.993387,82,1,7.9,6.88237,8.009683,8,95,0,s
268.16894,82,1,7.5,6.88237,8.009683,8.530885,10,7,s
71.851385,85,1,8.3,6.9,8.1,8.530885,27,6,m
181.383154,89,1,8.3,6.88237,8.009683,9,22,21,s
9144.46884,88,1,8.8,7.2,8.5,9,22,7,s
124.245659,85,1,9.1,7.2,8.3,8.530885,29,4,l
521.246533,85,1,7.5,6.88237,7.5,7,30,4,s
1134.576254,87,3,9.2,6.88237,8.4,10,25,7,s
172.181606,85,1,8.1,6.88237,8,8.530885,30,38,m
178.743713,89,1,8.3,6.88237,8.009683,9,22,11,m
93.574242,89,1,8.8,7.2,8.5,9,22,14,l
633.936936,60,1,9.1,7,8.8,8.530885,30,8,m
188.789139,85,1,7.4,6.2,7.1,8.530885,10,7,s
43.547769,88,1,6.4,6.88237,7,8.530885,35,0,s
1021.829387,85,1,7.8,6.8,7.7,8,24,0,s
3321.576601,87,1,8.3,6.5,7.8,8.530885,10,15,s
2725.499726,85,1,8.2,6.88237,8.009683,6,7,647,s
202.247384,60,1,7.7,6.1,7.2,8.530885,20,10,m
1052.288675,60,1,9.1,7,8.8,8.530885,30,0,m
182.807899,89,1,8.3,6.88237,8.009683,9,22,24,m
17840.31112,85,1,8.3,6.88237,8.009683,9,22,0,s
350.768515,88,1,7.6,6.5,7.6,8.530885,49,0,s
75.48049,85,1,9.1,7.2,8.3,8.530885,29,8,l
22.571134,50,1,7,6.88237,8.009683,8,21,6,m
97.25833,85,1,9.1,7.2,8.3,8.530885,29,7,s
3567.510061,80,1,8.6,6.88237,9.1,8.530885,33,10,m
223.45319,85,1,7.5,6.88237,7.5,7,30,124,s
97.291364,89,1,8,6.7,7.9,8,39,9,m
65.554082,86,1,6.8,6.2,7,8.530885,33,0,s
181.513742,89,1,8.3,6.88237,8.009683,9,22,17,m
212.15381,85,1,9.1,7.2,8.3,8.530885,29,10,l
13.776877,84,1,7.1,6.1,7.1,8.530885,32,0,m
7560.165945,88,1,9.1,7.2,8.3,8.530885,29,0,m
16968.01073,85,1,9.5,6.88237,8.5,12,33,62,m
1480.914953,60,1,8.6,7.4,8.5,8.530885,20,7,s
135.878244,85,1,9.1,7.2,8.3,8.530885,29,8,l
17030.72926,85,1,9.5,6.88237,8.5,12,33,0,m
2725.499726,85,1,8.2,6.88237,8.009683,6,7,647,m
2725.499726,85,1,8.1,6.88237,8.3,9,45,647,s
434.867132,85,1,9.1,7.2,8.3,8.530885,29,7,s
7823.770131,88,1,8.2,6.88237,8.009683,8,25,23.263212,s
1672.113043,85,1,8.8,7,8,8,35,60,s
9679.295915,82,1,7.7,6.5,7.5,8.530885,14,0,s
201.985276,81,1,8.1,7.1,8.1,8.530885,18,14,m
5010.057822,88,1,8.1,7.3,8.2,8.530885,10,72,s
43.659442,60,1,7.8,6.5,7.3,8.530885,20,5,m
8748.529396,81,1,9.5,6.88237,8.5,12,33,0,m
286.366816,85,1,8.4,6.88237,8.5,8.530885,15,74,m
10857.00338,81,1,9.5,6.88237,8.5,12,33,0,s
39.050944,85,1,6.2,6.88237,8.009683,8,8,4,s
2522.196913,85,1,7.6,6.4,7.6,6,50,0,s
127.10024,60,1,7.8,6.5,7.3,8.530885,20,9,m
11.720048,85,1,7.9,6.88237,7.9,8.530885,35,9,m
201.609657,81,1,8.1,7.1,8.1,8.530885,18,21,l
9605.323658,88,1,8,6.6,7.3,7,46,0,s
179.53282,81,1,8.1,7.1,8.1,8.530885,18,14,m
173.222532,85,1,7.5,6.88237,7.5,9,10,0,m
323.952015,85,1,8.1,6.88237,8.3,9,45,176,m
391.134126,60,1,7.7,6.1,7.2,8.530885,20,10,m
355.332084,85,1,7.4,6.3,7.2,10,56,0,s
217.808507,85,1,9.1,7.2,8.3,8.530885,29,9,l
55.371559,81,1,7.8,7.1,8,9,59,0,s
8407.330682,88,1,8,7.2,7.8,7,55,0,s
5816.4878,88,3,7.7,6,7.2,9,2,8,s
10994.56771,80,1,9.5,6.88237,8.5,12,33,12,m
58.06979,60,1,9.1,7,8.8,8.530885,30,23,m
3832.948647,85,1,8.8,7,8,8,35,6,s
7933.302672,81,1,9.1,7.2,8.3,8.530885,29,2,s
2039.984671,60,1,9.1,7,8.8,8.530885,30,19,m
437.269406,60,1,8.3,7,8,8.530885,25,10,m
7333.919961,73,1,8.6,8,8.6,11,33,88,s
724.056566,86,1,8.1,7.3,8.2,8.530885,10,27,s
67.790421,89,1,8.1,6.4,7.7,9,23,0,m
17188.47316,85,1,9.5,6.88237,8.5,12,33,8,s
2725.499726,85,1,8.3,6.88237,8.1,8.530885,15,647,l
723.170265,86,1,9.1,7.2,8.3,8.530885,29,4,m
4899.571227,60,1,9.1,7,8.8,8.530885,30,6,m
144.986774,89,1,8.2,6.88237,8.009683,8,25,6,m
6249.680016,80,1,9.1,7.2,8.3,8.530885,29,4,m
118.956178,89,1,7.5,5.8,6.6,4,10,0,l
117.985082,85,1,9.1,7.2,8.3,8.530885,29,9,l
73.341192,82,3,7,5.8,7.1,8.530885,25,14,m
145.053831,89,1,8.2,6.88237,8.009683,8,25,11,m
246.526431,85,1,9.1,7.2,8.3,8.530885,29,9,l
56.208927,85,3,7.5,6.9,7.2,9,10,8,m
122.202743,88,1,7.3,6.88237,8.009683,8.530885,28,5,m
8.355829,84,1,6.7,6.3,6.6,8,11,4,m
243.735791,85,1,9.1,7.2,8.3,8.530885,29,9,l
10393.02205,82,1,8,6.6,7.4,8.530885,33,0,s
103.702745,85,1,9.1,7.2,8.3,8.530885,29,7,l
282.217152,85,1,8.1,6.88237,8.3,9,45,7,m
11153.86065,80,1,9.5,6.88237,8.5,12,33,5,m
98.201711,85,1,9.1,7.2,8.3,8.530885,29,6,m
193.907004,85,1,8.2,6.88237,8.009683,6,7,0,l
7726.530269,88,1,9.1,7.2,8.3,8.530885,29,37,s
40.497423,85,1,6.6,6.2,6.6,5,14,0,s
3547.535254,80,1,8.6,6.88237,9.1,8.530885,33,7,l
182.975496,89,1,8.3,6.88237,8.009683,9,22,11,s
194.194562,85,1,9.1,7.2,8.3,8.530885,29,19,l
182.535697,89,1,8.3,6.88237,8.009683,9,22,9,s
95.864803,85,1,6.5,6.88237,6.5,8.530885,26.742663,22,m
206.957837,85,1,8,6.88237,8,5,26.742663,27,m
14590.27995,87,1,8.8,7.2,8.5,9,22,68,s
8033.031012,81,1,8,6.4,7.7,6,19,5,s
103.719585,85,1,9.1,7.2,8.3,8.530885,29,9,m
3667.175204,80,1,7.6,6.88237,8.009683,8,33,6,s
744.492463,85,1,7.8,6.8,7.7,8,24,131,m
7995.71448,87,1,7.9,6.4,7.4,8,24,15,s
268.536706,85,1,7,6.88237,8.009683,8.530885,40,0,s
71.851385,85,1,8.3,6.9,8.1,8.530885,27,6,m
7.375269,85,3,7.5,6.9,7.2,9,10,8,m
181.51016,89,1,8.3,6.88237,8.009683,9,22,16,m
10046.36506,88,1,8.1,6.88237,8.009683,9,19,5,s
399.040729,85,1,9.1,7.2,8.3,8.530885,29,0,m
3774.610501,80,1,8.6,6.88237,9.1,8.530885,33,0,m
4172.34197,85,1,8,6.4,7.7,6,19,0,s
281.933032,85,1,8.2,6.88237,8.009683,6,7,0,m
9530.998888,88,1,7.6,6.4,7.3,8.530885,45,12,s
188.375827,87,3,8.6,6.88237,7.3,6,15,40,l
69.554146,83,3,7.5,6.88237,8.009683,9,20,12,s
16987.80261,85,1,9.5,6.88237,8.5,12,33,104,m
1903.42761,85,1,9.1,7.2,8.3,8.530885,29,6,s
52.696116,85,1,6.1,5.5,5.9,8.530885,10,100,s
585.012931,85,1,9.1,7.2,8.3,8.530885,29,6,s
24.503303,86,1,7.1,6.3,7.1,9,9,25,m
120.487083,85,1,7.2,6.88237,7.1,8.530885,25,33,s
3962.574976,85,1,7.6,6.5,7.8,8.530885,13,0,s
3516.407924,80,3,8.6,6.88237,7.3,6,15,47,m
103.209145,85,1,9.1,7.2,8.3,8.530885,29,8,l
15755.96516,86,1,9.5,6.88237,8.5,12,33,22,s
214.096958,81,1,8.1,7.1,8.1,8.530885,18,0,l
221.948183,85,1,7.8,6.8,7.7,8,24,0,s
12394.07121,81,1,9.5,6.88237,8.5,12,33,0,s
29.944065,74,1,7.6,6.3,7.4,10,10,10,s
81.098333,89,1,8.3,6.88237,8.009683,9,22,9,m
2025.019735,60,1,9.1,7,8.8,8.530885,30,5,m
8592.488074,88,1,8.3,6.88237,8.009683,9,22,0,s
99.133688,86,1,8.3,6.5,7.8,8.530885,10,9,l
108.870961,85,1,7.4,6.88237,7.4,8.530885,10,34,s
1824.773025,60,1,9.1,7,8.8,8.530885,30,8,l
108.031153,85,1,8.2,6.88237,8.2,8.530885,26.742663,7,m
257.779884,85,1,9.1,7.2,8.3,8.530885,29,6,m
40.887101,50,3,7.7,6.88237,7.8,9,20,5,l
143.461635,86,1,8.2,6.88237,7.8,9,30,7,m
122.707683,85,1,7.6,6.88237,7.3,8.530885,74,34,s
205.517405,85,1,9.1,7.2,8.3,8.530885,29,13,l
5332.445701,80,1,8.2,6.88237,8,10,60,11,s
13070.62094,89,1,8.6,6.88237,9.1,8.530885,33,10,s
51.703274,60,1,7.8,6.5,7.3,8.530885,20,11,m
185.620134,85,1,8.1,6.88237,8,8.530885,30,0,m
212.490825,85,1,6.9,6.88237,8.009683,8,9,10,s
46.581956,60,1,7.8,6.5,7.3,8.530885,20,5,s
31.54772,80,3,6.5,5.8,6.1,6,9,7,s
114.426828,85,1,9.1,7.2,8.3,8.530885,29,7,s
53.625974,50,1,6.9,6.2,6.9,9,10,29,m
1735.472785,85,1,8.3,7.3,8.1,9,14,0,s
49.4076,85,1,7.9,6.88237,7.9,8.530885,35,304,m
2126.001098,87,1,8.2,6.88237,7.8,9,30,0,s
69.537673,85,1,7.9,6.88237,7.9,8.530885,35,0,m
1714.182549,60,1,9.1,7,8.8,8.530885,30,13,l
3324.638472,88,3,8.6,6.88237,7.3,6,15,37,m
270.351219,85,1,7.8,6.8,7.7,8,24,8,s
90.262873,85,1,9.1,7.2,8.3,8.530885,29,6,s
625.786164,85,1,6.4,6.88237,8.009683,8.530885,11,12,s
505.681177,85,1,8.4,6.88237,8.5,8.530885,15,0,s
838.838763,86,1,7.5,6.88237,8.009683,5,40,7,s
110.815256,88,3,6.8,6.88237,8.009683,9,26.742663,18,s
60.458499,83,3,7.5,6.88237,8.009683,9,20,15,m
9378.682138,81,1,9.5,6.88237,8.5,12,33,0,s
58.309989,89,1,8.2,6.88237,8.009683,8,25,18,m
11.913658,50,1,6.6,6.88237,8.009683,7,7,5,s
3635.083093,80,3,8.6,6.88237,7.3,6,15,25,s
123.965676,85,1,9.1,7.2,8.3,8.530885,29,9,m
233.113801,89,1,8.3,6.88237,8.009683,9,22,19,m
2725.499726,81,3,6.4,6.88237,6.8,8.530885,33,647,m
52.511134,81,1,7.8,7.1,8,9,59,18,s
91.75284,85,1,9.1,7.2,8.3,8.530885,29,19,l
3994.786459,81,1,7.6,6.6,7.5,8.530885,17,0,s
2228.051827,89,1,7.3,6.88237,8.009683,8.530885,28,23.263212,s
259.540674,60,1,9.1,7,8.8,8.530885,30,7,l
5099.389416,80,3,6.4,6.88237,6.8,8.530885,33,0,s
10142.91507,82,1,7.7,6.5,7.5,8.530885,14,12,s
209.136209,89,1,8.3,6.88237,8.009683,9,22,13,m
17011.46382,85,1,9.5,6.88237,8.5,12,33,41,m
263.006841,60,1,9.1,7,8.8,8.530885,30,7,l
17420.43636,85,1,9.5,6.88237,8.5,12,33,23,m
5147.018548,84,1,9,6.88237,8.5,7,22,9,s
120.472431,81,1,7.6,6.88237,8.009683,8.530885,12,6,s
5982.569205,85,1,7.7,6.4,7.9,8.530885,33,100,s
181.493978,89,1,8.3,6.88237,8.009683,9,22,17,m
159.731974,89,1,8.3,6.88237,8.009683,9,22,0,m
108.481134,83,1,5.8,6.88237,8.009683,8.530885,8,0,s
2133.017285,60,1,9.1,7,8.8,8.530885,30,4,l
1067.088498,82,1,7.4,6.88237,8.009683,8.530885,39,12,s
166.259825,88,1,8.2,6.88237,8.009683,9,47,12,m
7711.760255,88,1,8.2,6.88237,8.009683,6,7,0,s
48.446851,83,3,7.5,6.88237,8.009683,9,20,14,l
406.879376,85,1,7.2,6.88237,7.9,8.530885,33,0,s
10483.54237,80,1,8.2,6.88237,8.009683,8,25,0,s
49.611797,82,3,7,5.8,7.1,8.530885,25,12,l
317.002296,81,1,8,6.88237,8,8.530885,33,0,s
2410.190057,88,1,7.6,6.88237,8.009683,8,33,0,s
80.414545,85,1,8.1,6.88237,8,8.530885,30,0,l
11285.60646,81,1,9.5,6.88237,8.5,12,33,2,s
183.820361,89,1,8.3,6.88237,8.009683,9,22,6,s
14565.57405,88,1,9.1,7,8.8,8.530885,30,0,s
578.780292,85,0,8.30368,4.9,8.009683,8.530885,10,7,s
181.375807,89,1,8.3,6.88237,8.009683,9,22,20,l
92.615824,85,3,7.5,6.9,7.2,9,10,8,l
98.106835,86,1,8.3,6.5,7.8,8.530885,10,11,l
8.624578,50,1,6.6,6.88237,8.009683,7,7,7,s
114.972803,85,1,9.1,7.2,8.3,8.530885,29,9,m
1424.405607,86,1,8.8,7,8,8,35,27,s
9160.652805,88,1,8.8,7.2,8.5,9,22,7,s
3778.498591,80,1,8.6,6.88237,9.1,8.530885,33,0,m
7387.031831,80,1,7.6,5.4,7.7,8.530885,30,0,s
244.850222,86,1,7.1,6.3,7.1,8,50,87,s
32.743522,82,1,8.1,6.8,7.9,8.530885,24,9,m
30.276284,50,1,7,6.88237,8.009683,8,21,6,s
119.281441,85,1,9.1,7.2,8.3,8.530885,29,17,l
69.080855,85,1,8.1,6.88237,8.3,9,45,74,s
41.303248,60,1,7.8,6.5,7.3,8.530885,20,6,m
3965.621167,87,1,7.5,6.88237,7.5,7,30,0,s
86.548185,85,1,8.1,6.88237,8,8.530885,30,292,l
57.515049,85,1,8.1,6.88237,8.3,9,45,58,s
106.883083,85,1,9.1,7.2,8.3,8.530885,29,6,l
174.912146,85,1,8.3,6.88237,8.1,8.530885,15,6,s
2624.498508,88,3,9.2,6.88237,8.4,10,25,0,m
98.248868,86,1,8.3,6.5,7.8,8.530885,10,0,l
22.676112,85,3,7.5,6.9,7.2,9,10,11,s
181.464036,89,1,8.3,6.88237,8.009683,9,22,20,s
4374.75535,85,3,8.2,6.5,8.1,9,33,0,s
119.266804,85,1,9.1,7.2,8.3,8.530885,29,8,m
8294.760958,81,1,8,6.8,8.1,9,28,0,s
177.614308,81,1,8.1,7.1,8.1,8.530885,18,8,m
63.052578,83,3,7.5,6.88237,8.009683,9,20,25,m
318.59105,85,1,9.1,7.2,8.3,8.530885,29,5,m
219.622903,85,1,9.1,7.2,8.3,8.530885,29,7,m
13234.68048,89,1,9.1,7.2,8.3,8.530885,29,7,m
133.373715,85,1,9.1,7.2,8.3,8.530885,29,10,l
31.711912,88,3,7.5,6.88237,7.5,8,26.742663,7,m
181.552545,89,1,8.3,6.88237,8.009683,9,22,20,m
2108.422092,60,1,9.1,7,8.8,8.530885,30,0,m
4168.689656,80,1,7.7,6.5,7.5,8.530885,14,11,s
135.510892,88,1,7.6,5.4,7.7,8.530885,30,10,l
204.773181,85,1,8.2,6.88237,8.009683,6,7,0,m
74.251369,60,1,7.8,6.5,7.3,8.530885,20,13,m
8465.704439,88,1,9.1,7.2,8.3,8.530885,29,0,s
11115.53348,80,1,8.8,7.2,8.5,9,22,0,s
193.582987,85,1,8.3,6.9,8.1,8.530885,27,0,s
3571.961946,80,3,8.6,6.88237,7.3,6,15,12,m
272.640097,85,1,9.1,7.2,8.3,8.530885,29,8,l
1160.149837,85,1,8.3,7.3,8.1,9,14,140,s
595.759463,86,1,7.7,6.6,7.6,8,17,0,s
3579.100999,80,3,8.6,6.88237,7.3,6,15,0,m
10.733792,84,1,7.1,6.1,7.1,8.530885,32,8,m
10288.49531,81,1,8.2,6.88237,8.009683,9,47,0,s
4175.522035,85,3,7,5.8,7.1,8.530885,25,0,s
324.596506,85,1,9.1,7.2,8.3,8.530885,29,6,l
15138.08904,86,1,8.8,7.2,8.5,9,22,0,s
15572.39419,86,1,9.5,6.88237,8.5,12,33,0,m
1298.821933,86,3,7.5,6.9,7.2,9,10,62,s
72.511598,60,1,7.8,6.5,7.3,8.530885,20,12,l
452.755927,60,1,9.1,7,8.8,8.530885,30,11,s
5.21414,85,3,7.5,6.9,7.2,9,10,8,m
17111.93261,85,1,9.5,6.88237,8.5,12,33,0,m
571.549662,82,1,7.9,6.4,7.4,8,24,0,s
148.198985,85,1,9.1,7.2,8.3,8.530885,29,15,l
17793.68966,85,1,9.5,6.88237,8.5,12,33,0,s
138.21082,85,1,8.1,6.88237,8,8.530885,30,100,s
266.181568,85,1,9.1,7.2,8.3,8.530885,29,6,m
3743.199673,84,1,9.1,7.2,8.3,8.530885,29,0,s
5632.386368,80,1,7.5,6.4,7.3,8.530885,33,5,s
16841.49727,85,1,8,6.6,7.3,7,46,7,s
701.090461,85,1,7.8,6.8,7.7,8,24,0,m
410.416367,85,1,9.1,7.2,8.3,8.530885,29,9,m
130.419407,85,1,9.1,7.2,8.3,8.530885,29,6,m
660.373484,86,1,7.8,6.8,7.7,8,24,73,l
571.678573,85,1,7.4,6.6,7.4,10,66,0,s
3155.992561,81,1,8.1,7.1,8.1,8.530885,18,11,s
325.311625,85,1,8.1,6.88237,8.3,9,45,0,m
133.310735,85,1,9.1,7.2,8.3,8.530885,29,21,l
856.674247,86,1,9.1,7.2,8.3,8.530885,29,0,s
94.104765,85,1,6.5,6.88237,8.009683,8.530885,41,0,s
201.11379,85,1,6.9,6.88237,8.009683,8.530885,60,19,s
71.877688,85,1,8.3,6.9,8.1,8.530885,27,8,m
3408.253834,81,1,8.1,6.88237,8.009683,9,19,0,s
5850.166902,88,1,8.3,6.88237,8.009683,9,22,0,s
84.439005,85,1,7.5,6.88237,7.5,7,30,0,s
570.087121,60,1,9.1,7,8.8,8.530885,30,5,m
4688.317598,60,1,9.1,7,8.8,8.530885,30,6,m
30.358784,50,1,7,6.88237,8.009683,8,21,6,s
3483.132499,80,3,8.6,6.88237,7.3,6,15,0,m
23.110367,74,3,7,6.8,7.3,8.530885,13,6,m
123.931615,89,1,7.5,5.8,6.6,4,10,11,m
146.401993,89,1,8.8,7.2,8.5,9,22,18,l
206.845726,88,1,7.6,5.4,7.7,8.530885,30,15,l
104.025494,85,1,6.9,6.4,6.9,8.530885,33,80,s
7082.868625,88,1,8.6,6.88237,9.1,8.530885,33,0,s
189.03895,85,1,9.1,7.2,8.3,8.530885,29,7,l
93.043513,85,1,9.1,7.2,8.3,8.530885,29,5,l
5683.689801,85,3,8.6,6.88237,7.3,6,15,0,s
88.721373,85,1,9.1,7.2,8.3,8.530885,29,6,m
30.191009,82,1,7.9,6.6,7.9,8,49,23,m
173.770453,89,1,7.8,6.88237,7.8,8,47,0,s
182.768299,89,1,8.3,6.88237,8.009683,9,22,12,s
1733.864148,85,1,9.1,7.2,8.3,8.530885,29,6,s
170.636776,86,1,7,6.3,7,7,44,0,s
298.675606,89,1,8.8,7.2,8.5,9,22,18,l
643.977731,85,1,7.8,6.8,7.7,8,24,8,m
7324.812406,81,1,7.9,6.6,7.6,6,33,0,s
10974.96498,80,1,9.5,6.88237,8.5,12,33,39,m
5959.457694,85,1,7.9,5.8,7.9,8.530885,33,12,s
1379.431283,60,1,9.1,7,8.8,8.530885,30,9,m
350.885997,85,1,6.2,5.3,6.2,8.530885,5,60,s
229.817663,85,1,8.2,6.88237,8.009683,6,7,127,m
220.666704,60,1,7.7,6.1,7.2,8.530885,20,8,m
79.773105,85,1,7.5,6.88237,7.5,7,30,91,s
67.344517,85,1,7.9,6.88237,7.9,8.530885,35,0,l
799.082346,85,1,8.2,6.88237,8.009683,6,7,69,s
1836.237449,85,1,8.2,6.88237,7.8,9,30,49,s
3870.435027,80,1,8.6,6.88237,9.1,8.530885,33,0,m
749.730444,60,1,9.1,7,8.8,8.530885,30,11,s
1260.770752,81,1,7.7,6.88237,8.009683,8.530885,37,8,s
46.602246,50,1,7,6.88237,8.009683,8,21,6,m
2213.871355,88,3,9.2,6.88237,8.4,10,25,11,m
602.668391,85,1,7.9,6.88237,7.9,9,40,69,s
9175.76661,81,1,9.1,7,8.8,8.530885,30,0,s
192.753261,81,1,8.1,7.1,8.1,8.530885,18,12,l
199.307908,85,1,8.2,6.88237,8.009683,6,7,0,m
8375.215019,88,1,8.3,6.88237,8.1,8.530885,15,0,s
3164.276695,87,1,8.3,6.9,8.1,8.530885,27,8,s
2725.499726,85,1,7.6,6.88237,7.3,8.530885,74,647,s
3930.88555,80,1,8.6,6.88237,9.1,8.530885,33,0,m
423.765767,89,1,8.2,6.88237,8.4,11,25,34,m
199.41891,82,1,7.3,6.88237,7.3,8.530885,26.742663,0,l
195.020081,85,1,9.1,7.2,8.3,8.530885,29,14,l
16153.49221,85,1,8.1,6.6,7.6,9,13,0,s
181.539357,89,1,8.3,6.88237,8.009683,9,22,17,m
3127.728905,84,3,8.2,6.5,8.1,9,33,0,s
153.526544,85,1,9.1,7.2,8.3,8.530885,29,24,l
17429.70216,85,1,9.5,6.88237,8.5,12,33,9,s
1373.456177,85,1,9.1,7.2,8.3,8.530885,29,3,s
50.841759,85,3,7.5,6.9,7.2,9,10,5,m
14.631112,85,3,7.5,6.9,7.2,9,10,8,m
541.11316,85,1,5.7,5.4,5.1,8.530885,33,0,s
122.582344,50,1,7,6.88237,8.009683,8,21,0,s
153.391203,88,1,7.2,6.3,7.1,8,15,0,s
355.515255,82,1,7.1,6.88237,8.009683,2,21,0,s
102.887475,85,1,9.1,7.2,8.3,8.530885,29,7,m
183.013873,89,1,8.3,6.88237,8.009683,9,22,12,s
211.211009,85,1,9.1,7.2,8.3,8.530885,29,13,l
2725.499726,85,1,8.1,6.88237,8.3,9,45,647,m
4566.021623,81,1,7.6,7,7.8,8.530885,17,0,s
213.792458,81,1,8.1,7.1,8.1,8.530885,18,4,m
7977.775003,88,1,9.5,6.88237,8.5,12,33,8,s
1361.970281,85,1,8.4,6.88237,8.5,8.530885,15,0,s
134.156704,85,1,9.1,7.2,8.3,8.530885,29,6,m
473.476191,85,1,9.1,7.2,8.3,8.530885,29,8,m
111.133458,60,1,9.1,7,8.8,8.530885,30,8,l
207.512548,85,1,7.4,6.6,7.4,10,66,0,s
16028.53202,85,1,8.1,6.6,7.6,9,13,95,s
47.958199,85,1,7.1,6.4,6.9,8.530885,28,0,m
15361.79696,89,1,8.8,7,8,8,35,13,s
1308.554883,85,1,7.7,6.6,7.6,8,17,17,s
1260.547851,60,1,7.8,5.7,7.2,8.530885,18,10,s
12991.23946,81,1,9.1,7.2,8.3,8.530885,29,0,s
3861.32651,85,1,7.8,6.88237,8.009683,8,23,0,s
98.674318,86,1,8.3,6.5,7.8,8.530885,10,0,l
1936.214928,82,1,6.4,6.88237,8.009683,8.530885,34,0,s
47.113561,89,1,8.8,7.2,8.5,9,22,16,l
303.011997,85,1,5.5,6.1,5.5,8.530885,29,0,s
96.820674,85,1,9.1,7.2,8.3,8.530885,29,10,l
8937.227717,81,1,8.8,7,8,8,35,0,s
869.607725,85,1,8.2,6.88237,7.8,9,30,7,s
543.781688,85,1,9.1,7.2,8.3,8.530885,29,6,m
10834.56383,80,1,9.5,6.88237,8.5,12,33,0,m
3036.07459,85,1,8.8,7,8,8,35,0,s
62.607162,89,1,8,6.7,7.9,8,39,12,m
5.018438,87,3,9.2,6.88237,8.4,10,25,106,l
8198.758076,88,1,9.1,7.2,8.3,8.530885,29,0,m
50.733076,85,3,7.5,6.9,7.2,9,10,4,m
8.477092,50,1,6.6,6.88237,8.009683,7,7,5,s
140.486288,89,1,8.3,6.88237,8.009683,9,22,13,l
9333.325399,60,1,8.1,6.88237,8.009683,8.530885,48,8,s
94.579904,85,1,9.1,7.2,8.3,8.530885,29,16,l
16973.91578,85,1,9.5,6.88237,8.5,12,33,127,m
138.990305,85,1,7.1,6.3,7.1,9,9,0,s
45.068561,83,3,7.5,6.88237,8.009683,9,20,11,m
100.61072,86,1,8.8,7,8,8,35,11,m
227.799314,88,1,7.3,6.88237,7.3,8.530885,26.742663,9,m
2317.46686,60,1,9.1,7,8.8,8.530885,30,7,m
17.328023,74,1,7.3,6.88237,8.009683,10,33,42,l
155.807891,85,1,8.3,6.88237,8.1,8.530885,15,0,l
1342.365976,85,1,8.3,7.3,8.1,9,14,5,s
7692.815018,81,1,9.1,7,8.8,8.530885,30,0,s
3171.954349,80,1,7,5.8,7,8.530885,15,6,s
179.273626,85,1,8.2,6.88237,8.009683,6,7,48,m
407.251238,85,1,7,6.88237,7,8.530885,34,0,s
74.451993,85,1,7.7,6.6,7.6,8,17,91,l
564.441761,60,1,9.1,7,8.8,8.530885,30,13,l
2500.653279,85,1,8.8,7,8,8,35,0,s
2725.499726,85,1,8.1,6.88237,8.3,9,45,647,m
5940.965429,80,1,9.1,7.2,8.3,8.530885,29,12,m
519.352665,60,1,9.1,7,8.8,8.530885,30,5,m
117.369485,85,1,9.1,7.2,8.3,8.530885,29,7,m
183.987975,89,1,8.3,6.88237,8.009683,9,22,7,s
17160.77526,85,1,9.5,6.88237,8.5,12,33,0,s
4226.700287,85,1,7.6,6.5,7.8,8.530885,13,8,s
436.232815,85,1,9.1,7.2,8.3,8.530885,29,3,m
3595.212542,80,3,8.6,6.88237,7.3,6,15,12,s
90.575827,89,1,8.4,6.7,8.2,8,33,6,l
429.18192,88,1,7.3,6.6,7.4,8.530885,24,0,s
954.198155,81,1,7.3,6.88237,8.009683,7,20,8,s
201.494857,81,1,8.1,7.1,8.1,8.530885,18,22,l
6603.583597,88,1,7.9,6.6,7.9,5,33,0,s
17044.12979,85,1,9.5,6.88237,8.5,12,33,24,m
1133.703322,85,1,8.3,7.3,8.1,9,14,0,s
9202.959715,81,1,9.1,7,8.8,8.530885,30,0,s
116.801558,85,1,9.1,7.2,8.3,8.530885,29,8,m
8.085753,85,3,7.5,6.9,7.2,9,10,0,m
16969.22114,85,1,9.5,6.88237,8.5,12,33,0,m
769.471662,85,1,7.9,6.6,7.9,5,33,0,s
9739.215376,88,1,8.3,6.88237,8.009683,9,22,0,s
433.936125,85,1,9.1,7.2,8.3,8.530885,29,3,m
7247.689493,73,1,8.6,8,8.6,11,33,45,s
10312.1932,81,1,7.8,6.88237,7.8,8,47,0,s
24.567549,50,1,7,6.88237,8.009683,8,21,7,s
375.688614,86,1,5.7,6.88237,5.7,8.530885,60,27,s
97.920611,85,1,7.3,6.88237,7.3,8.530885,40,0,s
13168.92153,89,1,9.1,7.2,8.3,8.530885,29,7,l
4961.378236,80,1,8.8,7,8,8,35,0,s
8652.834212,88,1,9.1,7.2,8.3,8.530885,29,7,s
7241.066514,81,3,8.6,6.88237,7.3,6,15,0,l
3225.765203,85,1,7.6,6.88237,8.009683,7,32,7,s
3636.443558,80,3,8.6,6.88237,7.3,6,15,19,s
1197.148358,85,1,9.1,7.2,8.3,8.530885,29,0,s
164.071796,89,1,7.7,6.7,7.4,8,40,10,s
608.345174,89,1,8.8,7.2,8.5,9,22,7,l
2725.499726,60,3,7.8,6.5,7.5,11,28,647,m
15387.93754,71,1,9.1,7,8.8,8.530885,30,0,s
744.162927,85,1,9.1,7.2,8.3,8.530885,29,0,s
160.194125,82,1,8.1,6.8,7.9,8.530885,24,32,m
2683.899968,60,1,8.6,7.2,8.4,8.530885,30,0,s
13936.20949,60,1,8.2,6.88237,8.009683,8,25,8,s
2551.079309,60,1,9.1,7,8.8,8.530885,30,8,m
1277.142199,85,1,9.1,7.2,8.3,8.530885,29,0,s
16751.78762,85,1,9.5,6.88237,8.5,12,33,0,m
124.047867,85,1,9.1,7.2,8.3,8.530885,29,19,l
9607.339177,81,1,9.1,7.2,8.3,8.530885,29,7,s
119.647288,89,1,8.3,6.88237,8.009683,9,22,12,l
1079.420372,89,1,8.2,6.88237,8.009683,8,25,0,s
181.324546,89,1,8.3,6.88237,8.009683,9,22,8,s
247.537853,85,1,9.1,7.2,8.3,8.530885,29,6,l
9380.559005,81,1,9.1,7.2,8.3,8.530885,29,14,m
150.216154,85,1,6.7,6.88237,6.7,8.530885,20,0,s
1652.39215,60,1,9.1,7,8.8,8.530885,30,12,l
1958.534668,74,1,7.6,6.3,7.4,10,10,21,s
130.891863,86,1,7,5.8,7,8.530885,15,0,m
8.872272,85,3,7.5,6.9,7.2,9,10,0,m
16.064639,50,1,6.6,6.88237,8.009683,7,7,0,s
1965.491035,60,1,9.1,7,8.8,8.530885,30,10,l
33.823626,50,1,8.30368,6.88237,8.009683,9,26.742663,54,m
8275.331142,82,1,8.8,7,8,8,35,0,s
17394.48253,85,1,8,6.6,7.3,7,46,95,s
475.281856,73,1,8.5,6.88237,8.009683,11,26.742663,30,s
45.23042,89,1,8.8,7.2,8.5,9,22,30,l
73.710866,82,1,7.9,6.4,7.4,8,24,9,m
4567.581079,85,3,7,5.8,7.1,8.530885,25,69,s
5321.164345,80,1,8,6.6,7.4,8.530885,33,11,s
118.309863,85,1,7.4,6.88237,7.4,8.530885,10,0,s
225.587094,85,1,9.1,7.2,8.3,8.530885,29,8,m
55.631862,74,3,7.1,6.88237,8.009683,9,15,48,s
2499.189898,60,1,9.1,7,8.8,8.530885,30,8,m
9647.326409,88,1,8.2,7.6,7.9,8.530885,35,0,s
1543.849119,85,1,8.3,7.3,8.1,9,14,9,s
97.238264,85,1,9.1,7.2,8.3,8.530885,29,7,l
59.783834,82,1,7.6,6.5,7.8,8.530885,13,6,m
179.53779,81,1,8.1,7.1,8.1,8.530885,18,1,m
5065.155611,85,1,7.9,6.3,7.9,6,48,0,s
1774.681237,60,1,9.1,7,8.8,8.530885,30,9,l
254.736622,60,1,9.1,7,8.8,8.530885,30,10,l
69.215838,83,3,7.5,6.88237,8.009683,9,20,14,m
157.789673,85,1,8.3,6.88237,8.1,8.530885,15,9,m
6512.249018,83,1,8.8,7,8,8,35,0,s
2725.499726,82,1,7.9,6.3,7.9,6,48,647,m
5134.690891,60,1,9.1,7,8.8,8.530885,30,7,l
3937.580227,88,1,8,6.4,7.7,6,19,0,s
231.152379,85,1,7.2,6.1,7,8.530885,44,0,s
1850.793098,60,1,8.6,7.4,8.5,8.530885,20,10,s
13155.64415,89,1,9.1,7.2,8.3,8.530885,29,0,l
177.62749,81,1,8.1,7.1,8.1,8.530885,18,9,m
13711.35638,87,1,8.8,7.2,8.5,9,22,12,s
113.091017,85,1,9.1,7.2,8.3,8.530885,29,12,l
93.386347,80,3,7.7,6,7.2,9,2,0,m
859.589085,85,1,8.5,7.7,8.1,9,13,0,s
646.491946,85,1,7.5,6.88237,7.5,7,30,0,s
6148.014936,60,1,9.1,7,8.8,8.530885,30,0,m
285.676642,85,1,7,6.88237,7,8.530885,34,18,s
722.28941,86,1,9.1,7.2,8.3,8.530885,29,0,m
6305.850726,80,1,9.1,7.2,8.3,8.530885,29,8,m
1436.149457,87,1,7.7,6.5,7.5,8.530885,14,0,s
76.366334,85,1,9.1,7.2,8.3,8.530885,29,69,l
359.283435,85,1,8.5,7.7,8.1,9,13,13,m
638.340019,85,1,8.1,6.88237,8.3,9,45,0,m
8623.147812,81,1,7.7,6.5,7.5,8.530885,14,0,s
903.44026,85,1,8.1,6.88237,8.3,9,45,0,s
3587.955009,80,3,8.6,6.88237,7.3,6,15,12,s
6166.402023,82,1,8.8,7,8,8,35,0,s
182.150935,84,1,8,6.4,7.9,6,33,7,m
8124.652301,85,1,9,6.88237,9,8.530885,26.742663,0,l
1799.157325,88,1,7.9,6.88237,8.009683,4,14,0,s
2725.499726,85,5,6.4,6.88237,6.4,8.530885,26.742663,647,l
10861.81372,80,1,9.5,6.88237,8.5,12,33,0,m
5263.38657,80,1,9,6.88237,8.5,7,22,0,s
17349.42884,85,1,9.5,6.88237,8.5,12,33,11,m
84.97013,85,1,8.2,6.88237,8.2,8.530885,26.742663,14,m
5309.45627,80,1,9,6.88237,8.5,7,22,0,m
29.750052,82,1,7.1,6.4,7.1,8.530885,25,12,s
148.818787,60,1,8.4,6.9,8.5,8.530885,34,5,m
15772.94171,89,1,8.3,6.5,7.8,8.530885,10,0,s
178.945853,81,1,8.1,7.1,8.1,8.530885,18,3,m
16996.44163,85,1,8.5,6.88237,8.5,11,26.742663,40,m
539.549859,85,1,7.8,6.8,7.7,8,24,8,s
121.696898,85,1,8.3,6.88237,8.3,8.530885,26.742663,0,l
92.183524,85,1,9.1,7.2,8.3,8.530885,29,6,l
92.246642,85,1,9.1,7.2,8.3,8.530885,29,7,l
7225.928688,81,1,8.8,7,8,8,35,23.263212,s
4372.079971,60,1,9.1,7,8.8,8.530885,30,15,m
66.771758,85,1,8.3,6.9,8.1,8.530885,27,4,m
660.986008,81,1,8.1,7.1,8.1,8.530885,18,11,m
722.880293,40,1,7.8,6.88237,7.8,12,20,0,s
2293.144572,89,1,8,6.7,7.9,8,39,0,s
1624.870033,60,1,9.1,7,8.8,8.530885,30,1,m
182.138817,89,1,8.3,6.88237,8.009683,9,22,7,m
120.850412,85,1,9.1,7.2,8.3,8.530885,29,11,m
673.051785,85,1,5.7,6.88237,8.009683,8.530885,10,12,s
13592.31341,85,1,8.1,6.4,7.7,9,23,4,s
75.903333,85,1,8.1,6.88237,8.3,9,45,0,m
9321.967996,87,1,8.1,6.88237,8.009683,9,19,0,s
337.594503,82,1,8.1,6.8,7.9,8.530885,24,0,s
121.218214,85,1,9.1,7.2,8.3,8.530885,29,7,m
2108.220895,60,1,9.1,7,8.8,8.530885,30,0,m
5985.27899,85,1,7.9,5.8,7.9,8.530885,33,46,s
47.42504,80,1,7.9,6.88237,8.009683,10,26.742663,14,s
181.414161,89,1,8.3,6.88237,8.009683,9,22,13,s
50.547369,85,1,8.3,6.88237,8.1,8.530885,15,0,m
3263.125855,80,1,8.2,6.88237,8.009683,6,7,6,s
92.628998,85,3,7.5,6.9,7.2,9,10,8,l
153.666502,85,1,9.1,7.2,8.3,8.530885,29,22,l
103.99997,85,1,9.1,7.2,8.3,8.530885,29,10,l
3347.738497,85,1,8,6.4,7.7,6,19,4,s
3533.686019,80,1,8.6,6.88237,9.1,8.530885,33,21,l
1676.676802,60,1,9.1,7,8.8,8.530885,30,6,l
314.767215,85,1,5.7,6.88237,8.009683,8.530885,10,6,s
11172.90519,80,1,9.5,6.88237,8.5,12,33,0,m
16882.86351,85,1,9.5,6.88237,8.5,12,33,9,m
10647.90411,81,1,8.5,6.88237,8.5,11,25,50,s
10344.23255,81,1,8.3,6.88237,8.3,11,40,0,m
1789.072429,88,1,7.7,6.5,7.5,8.530885,14,0,s
16751.89375,85,1,9.5,6.88237,8.5,12,33,57,m
7361.240627,73,1,8.6,8,8.6,11,33,103,s
5379.898814,80,1,7.5,6.4,7.3,8.530885,71,11,s
91.360292,85,1,9.1,7.2,8.3,8.530885,29,15,m
253.389721,85,1,9.1,7.2,8.3,8.530885,29,7,s
52.16338,85,1,8.2,6.88237,8.2,8.530885,26.742663,9,l
758.501455,85,1,9.1,7.2,8.3,8.530885,29,12,s
142.070281,85,1,8.1,6.88237,8.3,9,45,8,m
725.241676,85,1,7.4,6.6,7.4,10,66,0,s
118.690177,85,1,9.1,7.2,8.3,8.530885,29,8,m
996.881613,60,1,9.1,7,8.8,8.530885,30,0,m
81.42114,85,1,9.1,7.2,8.3,8.530885,29,8,l
173.892422,85,1,6.7,6.88237,8.009683,8.530885,10,69,s
122.849754,85,1,9.1,7.2,8.3,8.530885,29,15,l
92.715221,89,1,8.2,6.88237,8.009683,8,25,16,m
5982.013422,80,1,9.1,7.2,8.3,8.530885,29,7,m
187.970535,85,1,5.4,6.88237,8.009683,8.530885,10,0,s
882.473194,50,1,8.30368,6.88237,8.009683,8.530885,26.742663,91,m
781.301952,85,1,8.1,7.3,8.2,8.530885,10,0,s
196.658625,85,1,9.1,7.2,8.3,8.530885,29,16,l
59.493573,85,1,8.1,6.88237,8.3,9,45,22,m
4400.39493,80,3,9.2,6.88237,8.4,10,25,0,m
186.383507,89,1,8.3,6.88237,8.009683,9,22,9,m
257.886904,85,1,8,6.88237,8,5,26.742663,39,l
237.436424,85,1,9.1,7.2,8.3,8.530885,29,15,l
4194.716726,80,3,8.1,6.88237,8.1,8.530885,25,11,s
17018.9387,85,1,9.5,6.88237,8.5,12,33,0,m
18823.22377,84,1,8.5,6.88237,8.3,11,70,12,s
74.487549,82,1,7.3,6.88237,7.3,6,35,0,s
3294.198326,81,1,8.1,6.8,7.9,8.530885,24,2,s
119.518543,85,1,9.1,7.2,8.3,8.530885,29,15,l
2809.45545,88,3,8.6,6.88237,7.3,6,15,0,s
129.323878,85,1,9.1,7.2,8.3,8.530885,29,17,l
6140.972697,88,1,8.3,6.5,7.8,8.530885,10,0,s
10819.57869,80,1,9.1,7.2,8.3,8.530885,29,23.263212,s
645.418283,85,1,7.8,6.8,7.7,8,24,9,s
994.341301,85,1,8.3,6.88237,7.6,8.530885,26.742663,0,s
9545.030501,81,1,9.1,7.2,8.3,8.530885,29,29,m
1267.800128,85,1,8.4,6.88237,8.5,8.530885,15,0,s
17.81472,85,1,7.9,6.88237,7.9,8.530885,35,10,m
126.447645,85,1,9.1,7.2,8.3,8.530885,29,6,m
7760.832241,88,1,9.1,7.2,8.3,8.530885,29,9,m
130.742255,85,1,9.1,7.2,8.3,8.530885,29,10,m
642.838542,89,1,8.8,7.2,8.5,9,22,10,s
361.916386,85,1,7.5,6.88237,7.5,8.530885,20,6,s
137.678786,85,1,9.1,7.2,8.3,8.530885,29,11,m
128.796474,85,1,9.1,7.2,8.3,8.530885,29,8,m
10308.94196,89,1,8.1,6.88237,8.009683,9,19,0,s
1580.964759,86,1,8,6.4,7.7,6,19,0,s
131.918903,85,1,9.1,7.2,8.3,8.530885,29,14,l
211.679175,85,1,7.7,6.88237,7.7,8.530885,26.742663,10,m
723.082275,86,1,9.1,7.2,8.3,8.530885,29,4,m
9316.43825,88,1,8.3,6.88237,8.009683,9,22,0,s
212.93139,85,1,9.1,7.2,8.3,8.530885,29,11,l
6226.928121,80,1,9.1,7.2,8.3,8.530885,29,14,m
9758.107323,88,1,7.9,6.3,7.9,6,48,12,s
1796.43406,60,1,9.1,7,8.8,8.530885,30,8,l
134.99248,85,1,9.1,7.2,8.3,8.530885,29,8,m
9038.905518,88,1,8,7.2,7.8,7,55,12,s
97.083405,85,1,9.1,7.2,8.3,8.530885,29,15,l
2481.090703,85,1,7.8,7.1,8,9,59,7,s
1800.899302,60,1,9.1,7,8.8,8.530885,30,9,l
753.888,85,1,7.8,6.8,7.7,8,24,0,m
186.557849,85,1,8.1,6.88237,8,8.530885,30,0,s
267.285988,89,1,8,6.7,7.9,8,39,0,s
616.640875,85,1,9.1,7.2,8.3,8.530885,29,4,m
1963.300724,60,1,9.1,7,8.8,8.530885,30,6,l
125.812359,85,1,9.1,7.2,8.3,8.530885,29,8,m
5306.044324,80,1,7.9,6.4,7.4,8,24,0,s
11430.54173,82,1,8.3,6.88237,8.009683,9,22,0,s
170.411748,85,1,7.6,6.88237,7.3,8.530885,74,0,s
6402.845666,60,1,9.1,7,8.8,8.530885,30,0,m
9.729531,84,1,6.7,6.3,6.6,8,11,12,m
53.295403,85,1,7.4,6.88237,7.4,8.530885,26.742663,174,l
84.84581,85,1,6.6,6.2,6.6,5,14,21,s
1654.649259,88,1,8.2,6.88237,8.009683,8,32,12,s
2581.633284,60,1,9.1,7,8.8,8.530885,30,0,m
178.233985,85,1,8.3,6.88237,8.1,8.530885,15,7,s
97.775316,86,1,8.2,6.88237,7.8,9,30,0,s
260.495002,60,1,9.1,7,8.8,8.530885,30,9,m
48.088865,81,1,6.9,6.88237,7.2,8.530885,12,65,m
5196.677002,88,1,9,6.88237,8.5,7,22,0,s
1721.161512,60,1,9.1,7,8.8,8.530885,30,8,m
28.481801,85,1,7.9,6.88237,7.9,8.530885,35,10,m
9054.802699,88,1,8,7.2,7.8,7,55,0,s
91.396988,85,1,9.1,7.2,8.3,8.530885,29,11,l
1763.400702,60,1,9.1,7,8.8,8.530885,30,4,m
3565.618539,80,1,8.6,6.88237,9.1,8.530885,33,0,m
3889.212078,60,1,8.6,7.2,8.4,8.530885,30,0,s
142.628145,85,1,7.7,6.6,7.6,8,17,48,s
128.474084,85,1,9.1,7.2,8.3,8.530885,29,6,l
185.602718,89,1,8.8,7.2,8.5,9,22,11,l
579.990679,85,1,9.1,7.2,8.3,8.530885,29,5,m
5.085634,85,3,7.5,6.9,7.2,9,10,10,m
10966.49138,80,1,9.5,6.88237,8.5,12,33,51,m
94.910281,50,1,6.6,6.88237,8.009683,7,17,6,s
146.905427,89,1,8.3,6.88237,8.009683,9,22,16,m
297.538069,85,1,8.4,6.88237,8.5,8.530885,15,7,s
62.885696,83,3,7.5,6.88237,8.009683,9,20,0,l
5898.027122,88,1,8.1,7.3,8.2,8.530885,10,0,s
3394.223049,85,1,8.8,7,8,8,35,34,s
69.570151,85,1,7.1,6.88237,8.009683,9,49,0,s
2287.434775,81,1,7.6,6.4,7.3,8.530885,45,0,s
46.493823,83,3,7.5,6.88237,8.009683,9,20,0,m
2725.499726,85,1,8.1,6.88237,8,8.530885,30,647,m
641.869473,85,1,7.8,6.8,7.7,8,24,0,s
2567.188639,60,1,9.1,7,8.8,8.530885,30,6,m
3569.644165,89,1,8.8,7.2,8.5,9,22,1,l
1519.617791,85,1,8.3,7.3,8.1,9,14,0,s
30.575092,50,1,7,6.88237,8.009683,8,21,7,s
63.685724,89,1,8.3,6.88237,8.009683,9,22,5,l
194.364249,85,1,9.1,7.2,8.3,8.530885,29,8,l
101.532438,85,1,9.1,7.2,8.3,8.530885,29,7,m
9039.606011,87,1,8.1,6.88237,8.009683,9,19,8,s
58.664,83,3,7.5,6.88237,8.009683,9,20,3,m
255.726108,85,1,9.1,7.2,8.3,8.530885,29,8,l
7361.990823,81,3,8.6,6.88237,7.3,6,15,0,l
241.771863,89,1,8.8,7.2,8.5,9,22,13,l
53.639992,86,1,7.1,6.3,7.1,9,9,9,s
1960.937835,88,1,8.1,6.88237,8.2,10,35,5,s
1000.315929,85,1,8.4,6.88237,8.5,8.530885,15,72,s
2737.099212,85,1,8.8,7,8,8,35,8,s
12889.00434,87,1,8,6.7,7.8,8,40,15,s
17650.88043,85,1,9.5,6.88237,8.5,12,33,0,m
117.568911,85,1,9.1,7.2,8.3,8.530885,29,8,m
313.693463,85,1,9.1,7.2,8.3,8.530885,29,8,m
559.819013,82,1,7.6,6.4,7.3,8.530885,45,0,s
3573.553323,80,3,8.6,6.88237,7.3,6,15,0,l
63.133189,89,1,8.3,6.88237,8.009683,9,22,14,m
3936.103349,80,1,8.6,6.88237,9.1,8.530885,33,32,m
389.844383,85,1,7.8,6.8,7.7,8,24,4,m
109.836577,88,1,8,6.8,8.1,9,28,0,m
222.125988,74,1,6.2,6.88237,8.009683,8.530885,15,0,m
10304.57209,89,1,7.6,7,7.6,8.530885,34,0,s
6235.579184,80,1,7.9,6.88237,7.9,8.530885,35,0,s
637.736327,85,1,8.3,7.3,8.1,9,14,0,s
8434.017676,88,1,8,6.88237,8,5,26.742663,5,s
5926.001188,60,1,9.1,7,8.8,8.530885,30,0,m
169.528667,50,3,7.7,6.88237,7.8,9,20,9,m
71.433483,86,1,7.1,6.3,7.1,8,50,0,s
4453.668577,80,3,9.2,6.88237,8.4,10,25,13,s
183.603758,89,1,8.3,6.88237,8.009683,9,22,13,s
10827.38595,80,1,9.5,6.88237,8.5,12,33,6,m
91.947338,85,1,7.5,6.88237,8.009683,5,40,8,m
10340.45332,73,1,9.1,7,8.8,8.530885,30,7,s
813.905515,85,1,9.1,7.2,8.3,8.530885,29,15,s
2591.242962,85,1,7.3,6.88237,7.3,8.530885,36,6,s
95.637106,85,1,9.1,7.2,8.3,8.530885,29,13,m
10686.47415,88,1,8.3,6.88237,8.009683,9,22,14,s
4525.154998,88,3,7.7,6,7.2,9,2,10,s
3805.412492,80,3,8.6,6.88237,7.3,6,15,0,m
109.304421,85,1,9.1,7.2,8.3,8.530885,29,6,m
7815.566208,80,1,7.7,6.88237,7.7,8.530885,60,0,s
49.197918,85,1,6.7,6,6.5,9,2,46,s
74.224849,60,1,7.8,6.5,7.3,8.530885,20,13,m
272.146418,85,1,9.1,7.2,8.3,8.530885,29,10,l
303.419472,81,1,8.1,7.1,8.1,8.530885,18,20,m
27.572624,50,1,7,6.88237,8.009683,8,21,5,m
290.841343,60,1,7.7,6.1,7.2,8.530885,20,11,m
1984.348343,60,1,7.8,6.88237,8.009683,5,24,23.263212,s
76.079305,85,1,9.1,7.2,8.3,8.530885,29,5,l
4390.919013,88,1,8.7,7.7,7.8,6,30,0,s
7.995458,50,1,6.6,6.88237,8.009683,7,7,5,s
128.192986,85,1,9.1,7.2,8.3,8.530885,29,9,l
961.730015,85,1,9.1,7.2,8.3,8.530885,29,0,s
6399.588632,60,1,9.1,7,8.8,8.530885,30,0,s
147.569591,89,1,8.3,6.88237,8.009683,9,22,18,m
30.000684,82,1,8.1,6.8,7.9,8.530885,24,12,m
17.739901,84,1,7.1,6.1,7.1,8.530885,32,9,s
498.91451,85,1,9.1,7.2,8.3,8.530885,29,10,m
41.222877,60,1,7.8,6.5,7.3,8.530885,20,7,m
12058.05619,89,1,8.3,6.5,7.8,8.530885,10,8,s
644.273716,60,1,9.1,7,8.8,8.530885,30,6,l
272.254015,85,1,9.1,7.2,8.3,8.530885,29,5,l
182.31564,89,1,8.3,6.88237,8.009683,9,22,5,m
179.272468,85,1,7.5,6.88237,7.5,9,10,6,s
13306.54364,89,1,9.1,7.2,8.3,8.530885,29,0,m
10927.98899,81,1,8.8,7,8,8,35,2,s
161.557238,88,1,7.6,5.4,7.7,8.530885,30,8,l
5184.511319,80,1,8.4,6.88237,8.3,11,15,0,m
720.676918,85,1,8.2,6.88237,7.8,9,30,0,s
3604.259403,88,1,8.6,6.88237,9.1,8.530885,33,0,s
135.202,85,1,8.3,6.9,8.1,8.530885,27,3,m
617.988827,85,1,8.3,6.88237,7.6,8.530885,26.742663,9,s
11021.69622,80,1,9.5,6.88237,8.5,12,33,0,m
119.837819,85,1,9.1,7.2,8.3,8.530885,29,7,m
16030.73501,87,1,8.1,6.88237,8.009683,8.530885,48,5,s
129.886113,83,3,8.2,6.5,8.1,9,33,0,l
292.531073,74,3,7.1,6.88237,8.009683,9,15,45,s
10857.3002,80,1,9.5,6.88237,8.5,12,33,0,m
86.564512,85,1,8.3,6.9,8.1,8.530885,27,7,m
9350.403189,80,1,8.1,6.6,7.6,9,13,0,s
2497.205283,60,1,9.1,7,8.8,8.530885,30,5,m
80.048902,89,1,8.8,7.2,8.5,9,22,19,l
17181.61174,85,1,9.5,6.88237,8.5,12,33,0,s
2521.509065,85,1,7.8,7.1,8,9,59,0,s
101.217113,85,1,9.1,7.2,8.3,8.530885,29,6,m
6342.856983,88,1,9.1,7.2,8.3,8.530885,29,72,s
134.470751,85,1,9.1,7.2,8.3,8.530885,29,6,l
133.940307,85,1,9.1,7.2,8.3,8.530885,29,7,l
712.734369,82,1,6.9,6.88237,8.009683,6,12,7,s
1425.811191,60,1,9.1,7,8.8,8.530885,30,229,s
92.850552,85,1,7.4,6.88237,7.4,8.530885,26.742663,8,m
24.110764,50,1,7,6.88237,8.009683,8,21,4,m
181.458624,89,1,8.3,6.88237,8.009683,9,22,15,l
50.714764,85,3,7.5,6.9,7.2,9,10,4,m
79.20011,60,1,7.8,6.5,7.3,8.530885,20,6,s
3803.249451,80,1,8.3,6.9,8.1,8.530885,27,0,s
121.413328,85,1,9.1,7.2,8.3,8.530885,29,6,l
132.309019,85,1,9.1,7.2,8.3,8.530885,29,11,l
76.28821,85,1,8.3,6.88237,8.1,8.530885,15,0,m
106.398047,85,1,9.1,7.2,8.3,8.530885,29,8,m
113.125359,60,1,9.1,7,8.8,8.530885,30,8,m
969.749647,85,1,8.5,7.7,8.1,9,13,0,s
95.812676,85,1,9.1,7.2,8.3,8.530885,29,9,m
18.492557,84,1,7.1,6.1,7.1,8.530885,32,6,m
36.89325,85,1,7.9,6.88237,7.9,8.530885,35,6,s
24.319018,83,3,5.8,6.88237,8.009683,6,10,0,s
451.88904,85,1,9.1,7.2,8.3,8.530885,29,9,m
182.749098,89,1,8.3,6.88237,8.009683,9,22,11,m
172.247301,85,1,7,6.88237,8.009683,8.530885,50,45,s
184.192538,81,1,8.1,7.1,8.1,8.530885,18,23,l
2244.325452,88,1,8.2,6.88237,8.009683,8,32,23.263212,s
10867.83155,89,3,9.2,6.88237,8.4,10,25,9,s
129.309038,86,1,7,6.88237,8.009683,8.530885,29,460,s
3672.571308,88,3,9.2,6.88237,8.4,10,25,0,s
978.795194,60,1,9.1,7,8.8,8.530885,30,0,m
8588.888676,81,3,9.2,6.88237,8.4,10,25,0,s
100.246297,85,1,6.1,6,6.1,8.530885,10,7,s
441.004167,85,1,8.5,7.7,8.1,9,13,0,s
3584.001244,89,1,8.8,7.2,8.5,9,22,0,s
170.208739,85,1,9.1,7.2,8.3,8.530885,29,10,l
39.27595,88,1,7.5,6.5,7.6,8,24,0,s
1701.173602,60,1,9.1,7,8.8,8.530885,30,5,l
92.632782,85,1,7.5,6.88237,7.5,8.530885,0,69,s
95.439615,50,1,6.6,6.88237,8.009683,7,17,5,s
5401.926067,80,1,8.4,6.88237,8.009683,11,30,0,l
763.472523,85,1,7.8,6.8,7.7,8,24,127,s
4939.692561,60,1,9.1,7,8.8,8.530885,30,2,s
1715.420706,60,1,9.1,7,8.8,8.530885,30,9,l
183.240328,89,1,8.3,6.88237,8.009683,9,22,11,s
197.960749,85,1,9.1,7.2,8.3,8.530885,29,5,m
3140.194977,85,1,8.7,7.7,7.8,6,30,10,s
9056.48303,88,1,8.8,7.2,8.5,9,22,0,s
7.097552,50,1,6.5,6.88237,6.6,9,26.742663,321,s
47.238784,89,1,8.3,6.88237,8.009683,9,22,19,l
181.366588,89,1,8.3,6.88237,8.009683,9,22,10,s
15547.30205,89,1,8.8,7,8,8,35,0,m
145.362185,85,1,7.1,6.88237,7.1,8.530885,0,69,s
3897.62232,80,1,8.6,6.88237,9.1,8.530885,33,6,s
14.389648,85,3,7.5,6.9,7.2,9,10,5,m
2685.091503,81,1,8.1,7.1,8.1,8.530885,18,0,s
9679.920644,81,1,8.8,7,8,8,35,2,s
33.52248,50,1,7,6.88237,8.009683,8,21,0,s
5852.237085,80,1,7.7,6.5,7.7,8,48,0,s
135.869754,85,1,9.1,7.2,8.3,8.530885,29,20,l
5251.611825,85,1,7.9,6.88237,7.9,9,47,0,s
252.204223,89,1,8.8,7.2,8.5,9,22,10,l
70.126607,60,3,7.8,6.5,7.5,11,28,13,m
175.954562,84,1,7.6,6.88237,8.009683,7,32,16,s
200.874237,85,1,7.3,6.88237,7.3,8.530885,40,6,s
182.255893,86,1,8.5,7.7,8.1,9,13,460,m
960.860139,85,1,8.2,6.88237,8.3,8.530885,33,7,s
244.277865,60,1,7.7,6.1,7.2,8.530885,20,9,m
8479.741481,88,1,9.1,7.2,8.3,8.530885,29,9,s
179.340082,89,1,8.3,6.88237,8.009683,9,22,0,m
279.221915,85,1,9.1,7.2,8.3,8.530885,29,9,l
17228.98014,85,1,9.5,6.88237,8.5,12,33,6,s
425.049371,74,1,7.3,6.88237,8.009683,10,33,28,s
93.219667,85,1,7.6,6.88237,7.3,8.530885,74,91,s
10601.16762,80,1,8,6.7,7.8,8,40,9,s
10484.15868,81,1,8.5,6.88237,8.5,11,25,0,s
108.499711,86,1,8.3,6.5,7.8,8.530885,10,0,s
547.673407,85,3,7.5,6.9,7.2,9,10,55,s
3657.494661,80,3,8.6,6.88237,7.3,6,15,14,m
16975.73298,85,1,9.5,6.88237,8.5,12,33,0,s
46.225079,60,3,7.8,6.5,7.5,11,28,44,m
131.549573,85,1,9.1,7.2,8.3,8.530885,29,8,m
8793.983815,81,1,9.1,7.2,8.3,8.530885,29,0,s
182.090473,81,1,8.1,7.1,8.1,8.530885,18,4,m
485.798759,85,0,8.30368,4.9,8.009683,8.530885,10,25,s
8085.303096,73,1,8.6,8,8.6,11,33,20,s
146.878199,89,1,8.3,6.88237,8.009683,9,22,16,l
6240.559952,80,1,9.1,7.2,8.3,8.530885,29,6,m
262.456565,60,1,9.1,7,8.8,8.530885,30,9,l
17425.66512,85,1,9.5,6.88237,8.5,12,33,209,s
1711.988516,60,1,9.1,7,8.8,8.530885,30,19,l
159.966447,85,1,7.2,6.88237,7.1,8.530885,25,7,s
1370.655908,81,1,7.6,7,7.8,8.530885,17,0,s
606.46121,60,1,9.1,7,8.8,8.530885,30,7,l
6237.819868,85,3,9.2,6.88237,8.4,10,25,8,s
2897.581821,85,1,8.3,6.5,7.8,8.530885,10,8,s
7.284521,84,1,6.7,6.3,6.6,8,11,6,m
2145.0397,85,1,9,6.88237,8.5,7,22,37,m
100.645979,85,1,9.1,7.2,8.3,8.530885,29,6,l
2108.028318,60,1,9.1,7,8.8,8.530885,30,3,m
264.193422,89,1,8.8,7.2,8.5,9,22,14,l
1252.549933,82,1,7.9,6.4,7.4,8,24,0,s
477.30113,60,3,7.7,6.88237,8.009683,4,15,4,s
334.825868,85,1,9.1,7.2,8.3,8.530885,29,10,l
2100.437834,88,3,9.2,6.88237,8.4,10,25,1595,s
9700.920568,89,1,7.6,7,7.8,8.530885,17,0,s
132.736387,85,1,9.1,7.2,8.3,8.530885,29,5,m
10714.62084,80,1,9.5,6.88237,8.5,12,33,0,m
2098.785631,89,1,8.5,6.88237,8.5,11,30,34,l
11.747642,89,1,8,6.7,7.8,8,40,178,m
498.845163,85,1,9.1,7.2,8.3,8.530885,29,0,m
191.43688,89,1,8.3,6.88237,8.009683,9,22,8,m
403.286822,60,3,8,7.7,8,10,15,4,m
168.790842,85,1,8.2,6.88237,8.009683,6,7,176,m
162.846533,85,1,8.3,6.88237,8.1,8.530885,15,95,m
386.33868,85,1,7.2,6.2,6.8,8.530885,37,0,s
4500.959678,80,3,9.2,6.88237,8.4,10,25,0,m
5570.113292,88,1,8.3,6.5,7.8,8.530885,10,0,s
5860.90337,88,1,8.3,6.88237,8.009683,9,22,44,s
153.363185,85,1,9.1,7.2,8.3,8.530885,29,0,l
10711.4023,80,1,9.5,6.88237,8.5,12,33,0,m
1493.326548,84,1,7,6.4,7.3,8.530885,10,21,s
323.194845,85,1,8.3,7.3,8.1,9,14,0,s
250.351954,88,1,8.2,6.88237,8.009683,9,47,5,s
2725.499726,80,1,9,6.88237,8.5,7,22,647,l
16968.64929,85,1,9.5,6.88237,8.5,12,33,0,s
14529.33507,85,1,6.8,6.88237,8.009683,8.530885,93,69,s
1020.574907,73,1,7.8,6.7,7.9,6,33,33,s
4855.260532,60,1,8.6,7.4,8.5,8.530885,20,2,s
283.005633,85,1,9.1,7.2,8.3,8.530885,29,10,l
3463.710231,88,1,7.9,6.88237,8.009683,6,109,16,s
529.487413,82,1,7.1,6.2,7.1,6,40,0,s
2268.011818,81,1,8,6.5,8,8.530885,33,0,s
63.702044,84,1,6.7,6.3,6.6,8,11,7,s
533.417811,60,1,9.1,7,8.8,8.530885,30,10,m
16780.91431,85,1,8.4,6.7,8.2,8,33,0,s
182.904095,89,1,8.3,6.88237,8.009683,9,22,18,m
135.07066,85,1,9.1,7.2,8.3,8.530885,29,10,m
39.852993,84,1,7.2,6.3,7.3,8.530885,21,26,m
8297.128241,73,1,9.1,7.2,8.3,8.530885,29,2,s
13753.63097,87,1,8,6.6,7.3,7,46,68,s
2992.71888,88,3,8.6,6.88237,7.3,6,15,9,s
182.360806,85,1,8.2,6.88237,8.009683,6,7,8,m
94.685755,85,1,9.1,7.2,8.3,8.530885,29,9,m
2851.029836,81,1,8.1,6.88237,8.009683,9,19,0,s
77.179067,85,1,7.7,6.8,7.7,8,44,0,s
4147.008626,85,1,7.6,6.5,7.8,8.530885,13,95,s
9098.833592,88,1,8.4,6.7,8.2,8,33,0,s
438.491857,85,1,7.9,6.6,7.9,5,33,6,s
51.3966,50,1,7,6.88237,8.009683,8,21,3,s
5004.518974,80,1,9,6.88237,8.5,7,22,12,m
2430.477487,85,1,7.6,7.2,7.6,8.530885,28,0,s
1451.781933,87,1,8.2,6.88237,8.009683,8,32,3,s
240.341427,85,1,8.1,6.88237,8.3,9,45,0,s
593.870528,85,1,7.5,6.88237,8.009683,5,40,42,s
2725.499726,85,1,8.3,6.88237,8.1,8.530885,15,647,m
191.367339,85,1,9.1,7.2,8.3,8.530885,29,10,m
464.428583,85,1,9.1,7.2,8.3,8.530885,29,4,m
72.727869,60,1,7.8,6.5,7.3,8.530885,20,16,m
231.162355,85,1,8.2,6.88237,8.009683,6,7,0,s
117.90282,85,1,9.1,7.2,8.3,8.530885,29,5,l
4494.928492,82,1,9.1,7.2,8.3,8.530885,29,0,s
229.487563,60,1,7.7,6.1,7.2,8.530885,20,4,s
4590.817836,60,1,9.1,7,8.8,8.530885,30,12,m
3881.150104,80,1,8.6,6.88237,9.1,8.530885,33,0,l
102.01191,83,3,6.8,6.88237,6.8,8.530885,40,19,m
98.604426,85,1,9.1,7.2,8.3,8.530885,29,8,m
140.368522,85,1,7.5,6.88237,7.5,8.530885,20,0,s
24.223826,50,3,6.5,6.1,6.5,7,14,62,s
121.443064,50,1,7,6.88237,8.009683,8,21,4,s
2048.561047,81,1,7.9,6.4,7.4,8,24,9,s
10974.92572,81,1,9.5,6.88237,8.5,12,33,8,s
2103.109445,85,1,7.8,6.88237,7.8,8.530885,25,0,s
90.607816,85,1,8.2,6.88237,8.2,8.530885,26.742663,12,m
2725.499726,85,1,8.1,6.88237,8,8.530885,30,647,l
3216.154138,81,1,9.1,7.2,8.3,8.530885,29,0,s
69.832625,83,3,7.5,6.88237,8.009683,9,20,8,s
207.178188,60,1,7.7,6.1,7.2,8.530885,20,10,s
868.738223,85,1,8.4,6.88237,8.5,8.530885,15,8,s
418.787948,85,1,7.1,6.88237,8.009683,6,35,0,s
69.462091,83,3,7.5,6.88237,8.009683,9,20,15,m
13801.92555,85,1,8.1,6.4,7.7,9,23,145,s
5725.03429,60,1,7.7,6.1,7.2,8.530885,20,2,s
170.870478,82,1,8.1,6.8,7.9,8.530885,24,10,m
8019.129851,88,1,9.1,7.2,8.3,8.530885,29,119,s
136.863453,85,1,7.5,6.88237,7.5,8.530885,20,0,s
3292.63081,87,1,8.8,7,8,8,35,0,s
445.686931,85,1,9.1,7.2,8.3,8.530885,29,5,m
10365.04854,81,1,8.3,6.88237,8.3,11,40,0,s
447.207826,85,1,9.1,7.2,8.3,8.530885,29,4,m
272.489278,85,1,6.4,6,6.4,8.530885,10,0,s
4855.583298,88,1,8.7,7.7,7.8,6,30,10,s
1746.833772,85,1,8.3,7.3,8.1,9,14,0,s
117.970429,85,1,9.1,7.2,8.3,8.530885,29,10,m
127.36939,84,1,7.1,6.4,7.4,8.530885,33,6,s
121.335113,89,1,8.3,6.88237,8.009683,9,22,16,m
6861.078127,80,1,7.3,6.6,7.4,8.530885,24,0,s
5191.074904,84,1,8.8,7,8,8,35,17,s
4180.542835,81,1,8.1,6.8,7.9,8.530885,24,0,s
1197.1545,60,1,7.8,6.88237,8.009683,5,24,0,s
3743.733736,80,3,8.6,6.88237,7.3,6,15,0,m
461.611794,74,1,7.5,6.88237,8.009683,8,19,5,s
3651.459337,80,3,8.6,6.88237,7.3,6,15,0,l
7266.038916,73,1,8.6,8,8.6,11,33,0,s
238.817536,74,3,7.1,6.88237,8.009683,9,15,0,s
258.8873,60,1,9.1,7,8.8,8.530885,30,6,m
3959.366955,80,1,8.6,6.88237,9.1,8.530885,33,7,m
1722.94988,60,1,9.1,7,8.8,8.530885,30,8,m
205.60057,85,1,9.1,7.2,8.3,8.530885,29,17,l
16848.80792,86,1,8.8,7.2,8.5,9,22,29,s
263.006841,60,1,9.1,7,8.8,8.530885,30,7,l
35.408596,89,1,8.3,6.88237,8.009683,9,22,12,m
101.724265,85,1,9.1,7.2,8.3,8.530885,29,6,m
4880.550822,80,1,8,7.2,7.8,7,55,11,s
124.878297,85,1,9.1,7.2,8.3,8.530885,29,12,l
16065.15514,85,1,8.5,6.88237,8.5,11,25,7,m
120.949478,85,1,6.5,6.88237,8.009683,8.530885,20,0,s
154.01635,89,1,7.5,5.8,6.6,4,10,21,l
124.607668,85,1,9.1,7.2,8.3,8.530885,29,12,m
11.000225,88,1,7.3,6.2,7,8,20,0,s
1627.654182,60,1,9.1,7,8.8,8.530885,30,10,l
10994.01578,80,1,9.5,6.88237,8.5,12,33,15,m
182.078445,89,1,8.3,6.88237,8.009683,9,22,8,m
175.806268,85,1,9.1,7.2,8.3,8.530885,29,12,l
40.617593,89,1,8.3,6.88237,8.009683,9,22,7,m
368.702844,85,1,7.8,6.8,7.7,8,24,0,l
121.765902,85,1,7.5,6.88237,7.5,9,10,10,m
24.488586,74,3,7,6.8,7.3,8.530885,13,6,m
315.780207,85,1,7.5,6.88237,7.5,9,10,0,m
707.159875,85,1,8.1,6.88237,8,8.530885,30,0,l
106.236032,86,1,7.5,6.88237,7.5,8.530885,40,0,l
1656.27133,60,1,9.1,7,8.8,8.530885,30,5,s
135.81031,85,1,9.1,7.2,8.3,8.530885,29,10,l
227.39892,85,1,6.7,6.88237,8.009683,8.530885,10,10,s
3805.735706,80,3,8.6,6.88237,7.3,6,15,0,l
8522.070057,88,1,8.3,6.88237,8.3,11,40,0,s
80.91005,85,1,8.3,6.88237,8.1,8.530885,15,15,l
197.726025,85,1,8.2,6.88237,8.009683,6,7,98,l
2725.499726,85,1,8.3,6.88237,8.1,8.530885,15,647,m
205.086911,85,1,9.1,7.2,8.3,8.530885,29,8,l
246.365159,85,1,8.4,6.88237,8.5,8.530885,15,215,m
130.289418,85,1,9.1,7.2,8.3,8.530885,29,6,m
1780.179284,60,1,9.1,7,8.8,8.530885,30,3,m
123.464154,85,1,9.1,7.2,8.3,8.530885,29,8,m
75.166783,81,1,7,6.88237,8.009683,8.530885,12,10,m
2725.499726,80,3,8.6,6.88237,7.3,6,15,647,l
241.457466,89,1,8.8,7.2,8.5,9,22,11,l
127.871062,85,1,9.1,7.2,8.3,8.530885,29,8,m
83.905991,85,1,6.9,6.88237,6.9,8.530885,30,0,s
2937.44896,88,3,9.2,6.88237,8.4,10,25,9,m
56.802932,88,1,7.3,6.88237,7.3,8.530885,26.742663,341,m
79.614208,85,1,9.1,7.2,8.3,8.530885,29,8,l
205.727196,82,1,8.1,6.8,7.9,8.530885,24,0,m
183.600541,89,1,8.3,6.88237,8.009683,9,22,13,s
9059.785498,81,1,8.8,7.2,8.5,9,22,5,s
3823.667348,80,1,8.2,6.88237,8.009683,8,32,0,s
653.916533,81,1,8.1,7.1,8.1,8.530885,18,13,l
4409.908452,80,3,9.2,6.88237,8.4,10,25,9,s
144.221365,89,1,8.3,6.88237,8.009683,9,22,17,m
27.371344,85,1,7.5,6.88237,7.5,8.530885,26.742663,8,l
2167.501891,60,1,9.1,7,8.8,8.530885,30,0,s
217.262926,88,1,7.6,5.4,7.7,8.530885,30,16,s
134.696593,85,1,9.1,7.2,8.3,8.530885,29,7,l
2186.086977,82,1,7.9,6.4,7.4,8,24,0,s
1625.529306,60,1,9.1,7,8.8,8.530885,30,9,l
67.058868,82,3,7,5.8,7.1,8.530885,25,21,m
16970.01323,85,1,9.5,6.88237,8.5,12,33,0,m
9549.847675,88,1,9,6.88237,8.5,7,22,0,s
9165.445596,81,1,9.1,7.2,8.3,8.530885,29,5,s
189.738822,81,1,8.1,7.1,8.1,8.530885,18,36,l
16990.08389,85,1,9.5,6.88237,8.5,12,33,0,m
125.463648,85,1,9.1,7.2,8.3,8.530885,29,8,l
3569.38165,89,1,8.8,7.2,8.5,9,22,4,m
262.095785,60,1,9.1,7,8.8,8.530885,30,9,l
111.139134,85,1,9.1,7.2,8.3,8.530885,29,10,m
100.852446,85,1,7.8,6.8,7.7,8,24,0,m
2725.499726,81,3,6.4,6.88237,6.8,8.530885,33,647,s
727.993748,85,1,7,6.88237,7,8.530885,34,6,s
8488.976516,81,3,8.6,6.88237,7.3,6,15,10,m
181.357419,85,1,8.3,6.9,8.1,8.530885,27,6,s
401.321047,85,1,8.4,6.88237,8.5,8.530885,15,7,s
185.327005,85,1,8.2,6.88237,8.009683,6,7,0,m
96.177603,85,1,9.1,7.2,8.3,8.530885,29,14,l
17787.9188,85,1,9.5,6.88237,8.5,12,33,0,s
5246.261055,80,1,7.6,7,7.6,8.530885,34,0,s
369.118571,87,3,8.2,6.88237,8.6,11,60,0,m
543.952089,85,1,9.1,7.2,8.3,8.530885,29,5,s
3976.187959,85,1,7.9,6.6,7.9,8,49,0,s
4724.83755,84,1,8.8,7,8,8,35,0,s
30.760186,50,1,7,6.88237,8.009683,8,21,5,m
11014.16406,80,1,9.5,6.88237,8.5,12,33,21,m
257.27506,85,1,9.1,7.2,8.3,8.530885,29,9,l
410.587265,85,1,9.1,7.2,8.3,8.530885,29,0,l
435.210546,85,1,7.4,6.3,7.2,10,56,67,s
181.588511,89,1,8.3,6.88237,8.009683,9,22,14,m
260.475912,60,1,9.1,7,8.8,8.530885,30,10,l
50.291947,83,3,7.5,6.88237,8.009683,9,20,17,m
286.908075,85,1,8.4,6.88237,8.5,8.530885,15,69,m
276.769276,85,1,9.1,7.2,8.3,8.530885,29,9,l
157.144583,85,1,8.3,6.88237,8.1,8.530885,15,0,s
473.677863,85,1,9.1,7.2,8.3,8.530885,29,8,m
282.117643,60,1,7.7,6.1,7.2,8.530885,20,11,s
93.565134,89,1,8.8,7.2,8.5,9,22,14,l
128.45593,85,1,9.1,7.2,8.3,8.530885,29,8,m
443.443523,85,1,9.1,7.2,8.3,8.530885,29,5,m
3509.922424,80,3,8.6,6.88237,7.3,6,15,28,l
371.19073,60,1,7.8,6.5,7.3,8.530885,20,0,s
81.485193,85,1,9.1,7.2,8.3,8.530885,29,21,l
190.66249,85,1,7.8,6.8,7.7,8,24,61,s
96.816731,50,3,7.7,6.88237,7.8,9,20,8,m
262.681645,60,1,9.1,7,8.8,8.530885,30,7,l
24.490091,50,1,7,6.88237,8.009683,8,21,12,s
71.138211,85,3,7.5,6.9,7.2,9,10,6,s
283.983425,85,1,9.1,7.2,8.3,8.530885,29,15,l
892.152124,40,1,7.8,6.88237,7.8,12,20,7,s
49.771179,86,1,6.2,5.3,6.2,8.530885,5,9,s
146.84752,89,1,8.3,6.88237,8.009683,9,22,0,l
6993.975533,88,1,8.3,6.5,7.8,8.530885,10,33,s
41.807242,89,1,8,6.7,7.9,8,39,13,m
8628.401183,88,1,9.1,7.2,8.3,8.530885,29,0,s
181.437881,89,1,8.3,6.88237,8.009683,9,22,16,m
92.939022,82,1,7.5,6.88237,7.7,8.530885,26.742663,8,s
63.710681,89,1,8.3,6.88237,8.009683,9,22,4,m
2495.700072,60,1,9.1,7,8.8,8.530885,30,0,m
465.927792,85,1,8.3,7.3,8.1,9,14,0,s
181.481633,89,1,8.3,6.88237,8.009683,9,22,15,s
314.091715,86,1,9,6.88237,8.5,7,22,1,l
130.253787,85,1,9.1,7.2,8.3,8.530885,29,12,l
213.766751,85,1,8.2,6.88237,8.009683,6,7,7,s
82.577914,85,1,9.1,7.2,8.3,8.530885,29,21,l
17082.36373,85,1,9.5,6.88237,8.5,12,33,0,s
15598.44466,88,1,8.1,6.88237,8.009683,8.530885,48,0,s
134.620532,85,1,9.1,7.2,8.3,8.530885,29,12,l
2108.096139,60,1,9.1,7,8.8,8.530885,30,0,m
116.328374,85,1,9.1,7.2,8.3,8.530885,29,8,l
148.729643,85,1,7.8,6.8,7.7,8,24,0,m
2381.355247,85,1,7.5,6.5,7.5,4,11,0,s
1656.396639,60,1,9.1,7,8.8,8.530885,30,6,l
7381.806071,81,3,8.6,6.88237,7.3,6,15,10,m
541.978198,50,3,7,6.88237,7.2,11,40,15,s
68.224071,60,3,7.8,6.5,7.5,11,28,27,l
132.166207,85,1,9.1,7.2,8.3,8.530885,29,7,m
63.458576,81,1,8,6.88237,8,8.530885,33,9,m
93.551638,89,1,8.8,7.2,8.5,9,22,21,l
118.131763,85,1,9.1,7.2,8.3,8.530885,29,11,m
1822.86915,60,1,9.1,7,8.8,8.530885,30,6,m
516.100914,86,1,7.7,6.6,7.6,8,17,155,l
1208.128182,81,1,8,6.5,8,8.530885,33,6,s
17418.02932,85,1,9.5,6.88237,8.5,12,33,6,m
181.824586,89,1,8.3,6.88237,8.009683,9,22,15,s
134.981641,85,1,9.1,7.2,8.3,8.530885,29,7,m
249.188226,85,1,8.2,6.88237,8.009683,6,7,53,s
5846.349689,88,1,8.1,7.3,8.2,8.530885,10,7,s
9785.66664,81,1,7.8,6.88237,7.8,8,47,0,s
191.378617,85,1,9.1,7.2,8.3,8.530885,29,8,l
310.027723,85,1,7.5,6.88237,7.5,7,30,52,s
5216.604256,82,1,8.1,6.6,8,8.530885,10,0,s
1003.624449,86,1,8.2,6.88237,7.8,9,30,7,s
2903.046575,88,3,9.2,6.88237,8.4,10,25,138,s
281.586258,85,1,8.4,6.88237,8.5,8.530885,15,5,s
2612.737613,85,1,9,6.88237,8.5,7,22,0,m
1654.436056,88,1,7.9,6.7,7.6,6,10,23.263212,s
1788.997598,60,1,9.1,7,8.8,8.530885,30,5,m
77.302355,85,3,7.5,6.9,7.2,9,10,3,m
9786.768808,88,1,9.5,6.88237,8.5,12,33,0,s
11154.19959,80,1,9.5,6.88237,8.5,12,33,9,m
39.781283,85,1,7.9,6.88237,7.9,8.530885,35,145,l
7101.923095,85,3,7.7,6,7.2,9,2,95,s
5978.711624,80,1,9.1,7.2,8.3,8.530885,29,0,s
10433.97015,81,1,8.4,6.7,8.2,8,33,0,s
417.015972,85,1,9.1,7.2,8.3,8.530885,29,5,m
10247.09025,89,1,7.6,7,7.6,8.530885,34,0,s
45.898416,60,1,7.8,6.5,7.3,8.530885,20,8,m
1439.20939,81,1,7.3,6.88237,7.3,8.530885,60,0,s
84.306362,85,1,7.5,6.88237,7.5,7,30,139,m
2725.499726,85,1,8.1,6.88237,8,8.530885,30,647,l
7378.234776,85,1,7.7,6.5,7.5,8.530885,14,0,s
88.339019,85,1,9.1,7.2,8.3,8.530885,29,6,m
410.494517,85,1,9.1,7.2,8.3,8.530885,29,6,m
4511.149721,88,1,7.9,6.6,7.6,6,33,0,s
2297.450292,85,1,7.8,7.1,8,9,59,0,s
89.182611,85,1,9.1,7.2,8.3,8.530885,29,5,l
7970.021689,88,1,8.7,7.7,7.8,6,30,8,s
11180.06036,80,1,9.5,6.88237,8.5,12,33,0,m
131.007067,85,1,9.1,7.2,8.3,8.530885,29,0,l
7228.576829,81,1,8.8,7.2,8.5,9,22,8,m
1828.017836,60,1,9.1,7,8.8,8.530885,30,8,m
5546.145049,80,1,7.7,6.5,7.7,8,48,0,s
939.413154,50,1,6.8,6.5,6.9,10,12,26,s
156.198472,85,1,8.3,6.88237,8.1,8.530885,15,0,m
260.350892,85,1,5.5,6.1,5.5,8.530885,29,8,s
3509.583467,80,3,8.6,6.88237,7.3,6,15,0,m
124.725152,85,1,9.1,7.2,8.3,8.530885,29,0,l
117.83976,85,1,9.1,7.2,8.3,8.530885,29,8,m
6223.777217,80,1,9.1,7.2,8.3,8.530885,29,5,m
15319.42224,71,1,9.1,7,8.8,8.530885,30,0,s
704.718916,86,1,9.1,7.2,8.3,8.530885,29,0,s
201.022567,60,1,7.7,6.1,7.2,8.530885,20,12,m
114.005955,86,1,8.8,7,8,8,35,14,m
9815.614656,88,1,9.5,6.88237,8.5,12,33,188,m
93.346644,50,1,6.6,6.88237,8.009683,7,17,6,s
134.97135,85,1,9.1,7.2,8.3,8.530885,29,8,l
47.559131,60,1,7.8,6.5,7.3,8.530885,20,9,l
6263.014273,85,3,7.7,6,7.2,9,2,0,s
258.353201,60,1,9.1,7,8.8,8.530885,30,8,l
1037.080008,87,1,8,6.4,7.7,6,19,15,s
505.774784,85,1,9.1,7.2,8.3,8.530885,29,9,m
715.148624,60,1,9.1,7,8.8,8.530885,30,7,l
183.111583,89,1,8.3,6.88237,8.009683,9,22,13,s
6517.0687,88,1,8.3,7.3,8.1,9,14,0,s
30.943416,85,1,8.2,6.88237,8.2,8.530885,26.742663,97,l
48.145621,85,1,7.5,6.88237,8.009683,5,40,7,s
125.092697,85,1,9.1,7.2,8.3,8.530885,29,9,l
3243.337577,85,1,8.6,6.88237,9.1,8.530885,33,19,s
2316.983548,85,1,7.3,6.88237,7.3,8.530885,36,52,s
685.086237,60,1,9.1,7,8.8,8.530885,30,9,s
192.761448,81,1,8.1,7.1,8.1,8.530885,18,17,l
184.556249,85,1,9.1,7.2,8.3,8.530885,29,8,l
59.64771,60,1,7.8,6.5,7.3,8.530885,20,27,m
2012.954788,89,1,8.2,6.88237,8.009683,8,25,0,s
110.305691,85,1,9.1,7.2,8.3,8.530885,29,3,m
2036.382081,60,1,9.1,7,8.8,8.530885,30,16,l
5011.156987,80,1,9,6.88237,8.5,7,22,0,m
118.862526,85,1,9.1,7.2,8.3,8.530885,29,9,m
230.187372,85,1,9.1,7.2,8.3,8.530885,29,6,l
423.299758,85,1,7.1,6.88237,8.009683,8.530885,25,103,s
62.453337,85,3,7.5,6.9,7.2,9,10,2,m
71.851385,85,1,8.3,6.9,8.1,8.530885,27,6,m
154.797885,85,1,8.2,6.88237,8.009683,6,7,0,m
2409.839604,89,1,8.8,7.2,8.5,9,22,23.263212,s
6934.155296,88,1,8.3,7.3,8.1,9,14,0,s
14662.68542,85,1,8.1,6.4,7.7,9,23,72,s
181.474784,89,1,8.3,6.88237,8.009683,9,22,18,s
27.685218,85,1,6.3,6.2,6.1,8.530885,13,44,s
133.525551,85,1,7.2,6.7,7,8.530885,14,52,s
5413.956406,60,1,9.1,7,8.8,8.530885,30,0,m
60.482403,60,3,7.8,6.5,7.5,11,28,0,m
16.244799,74,1,7.3,6.88237,8.009683,10,33,27,l
645.03361,60,1,9.1,7,8.8,8.530885,30,10,l
17621.21658,85,1,9.5,6.88237,8.5,12,33,0,s
2476.30961,60,1,9.1,7,8.8,8.530885,30,4,m
93.34526,87,3,9.2,6.88237,8.4,10,25,292,m
13178.20065,89,1,9.1,7.2,8.3,8.530885,29,0,m
15672.41867,88,1,8.1,6.88237,8.009683,8.530885,48,12,s
783.571875,87,3,9.2,6.88237,8.4,10,25,12,s
91.131307,85,1,9.1,7.2,8.3,8.530885,29,4,l
852.842452,85,1,7.2,6.7,7,8.530885,14,0,s
1055.229032,85,1,9.1,7.2,8.3,8.530885,29,0,m
5396.32464,89,1,8.2,6.88237,8.009683,9,47,42,s
5589.009366,88,1,9,6.88237,8.5,7,22,0,s
54.762084,60,1,8.6,7.2,8.4,8.530885,30,0,m
95.910749,60,1,7.8,6.5,7.3,8.530885,20,8,s
2109.291132,60,1,9.1,7,8.8,8.530885,30,38,m
7.452965,50,3,5.9,6.88237,5.9,8,6,0,m
30.567676,83,1,7,6.88237,7.4,8,15,15,m
1677.364804,60,1,9.1,7,8.8,8.530885,30,0,l
230.12903,85,1,9.1,7.2,8.3,8.530885,29,11,l
2725.499726,85,1,7.5,6.88237,7.5,9,10,647,s
136.125454,85,1,8.3,6.9,8.1,8.530885,27,8,m
188.663187,89,1,8.3,6.88237,8.009683,9,22,10,m
182.240048,86,1,8.8,7,8,8,35,84,l
4322.977578,80,1,7.9,6.7,7.6,6,10,0,s
121.161565,85,1,8.3,6.88237,8.1,8.530885,15,23,m
132.250181,85,1,9.1,7.2,8.3,8.530885,29,8,s
27.745061,50,1,7,6.88237,8.009683,8,21,8,m
6577.956271,88,1,9,6.88237,8.5,7,22,0,s
50.388369,50,3,7.7,6.88237,7.8,9,20,6,m
2478.667672,88,1,8.2,6.88237,8.009683,8,32,0,s
99.765263,85,1,9.1,7.2,8.3,8.530885,29,7,l
3428.330052,81,1,8.1,7.1,8.1,8.530885,18,0,s
10948.19358,80,1,8.8,7.2,8.5,9,22,0,s
260.073238,60,1,9.1,7,8.8,8.530885,30,6,l
11383.58555,81,1,8,6.6,7.3,7,46,5,s
187.973199,81,1,8.1,7.1,8.1,8.530885,18,14,s
506.217665,85,1,9.1,7.2,8.3,8.530885,29,0,s
9549.765493,81,1,9.1,7.2,8.3,8.530885,29,7,m
786.182607,85,1,9.1,7.2,8.3,8.530885,29,72,s
404.318921,85,1,8.3,6.88237,8.1,8.530885,15,91,s
6290.872592,88,1,8.2,6.88237,7.8,9,30,12,s
214.005066,81,1,8.1,7.1,8.1,8.530885,18,25,l
1293.512645,85,1,9.1,7.2,8.3,8.530885,29,0,s
60.165608,82,1,8.1,6.8,7.9,8.530885,24,10,m
45.922529,89,1,8.8,7.2,8.5,9,22,17,l
10449.7144,81,1,8.8,7,8,8,35,1,s
81.153208,82,1,7.9,6.88237,7.9,9,47,27,m
11617.98663,88,1,9.5,6.88237,8.5,12,33,0,m
79.99746,85,1,7.7,6.6,7.6,8,17,156,l
84.612519,85,1,6.7,6.88237,6.7,8.530885,50,0,s
1197.531281,85,1,9.1,7.2,8.3,8.530885,29,12,m
1958.716584,85,1,9,6.88237,8.5,7,22,0,s
92.780655,85,3,7.5,6.9,7.2,9,10,5,l
90.921512,85,1,9.1,7.2,8.3,8.530885,29,9,m
104.185443,50,3,7,6.88237,7.2,11,40,5,m
71.905343,85,1,8.1,6.88237,8.3,9,45,0,m
43.692638,82,1,7.1,6.4,7.1,8.530885,25,10,s
29.388576,84,1,7,6.88237,6,8.530885,26.742663,22,l
3782.556501,80,1,8.6,6.88237,9.1,8.530885,33,0,m
46.036679,60,1,7.8,6.5,7.3,8.530885,20,8,l
356.800045,85,1,7.5,6.88237,8.009683,8.530885,33,0,s
128.328634,85,1,9.1,7.2,8.3,8.530885,29,9,l
2635.305597,85,1,8.8,7,8,8,35,0,s
84.439005,85,1,7.5,6.88237,7.5,7,30,0,s
6464.74225,80,1,7.8,7.1,8,9,59,7,s
5033.386733,87,1,9.1,7.2,8.3,8.530885,29,0,s
130.743784,85,1,9.1,7.2,8.3,8.530885,29,9,m
92.535744,60,1,8.6,7.2,8.4,8.530885,30,0,m
8970.469492,81,1,9.1,7.2,8.3,8.530885,29,0,s
1294.430611,87,1,7.8,6.88237,8.009683,8.530885,19,34,s
80.91005,85,1,8.3,6.88237,8.1,8.530885,15,15,l
3569.537792,89,1,8.8,7.2,8.5,9,22,2,m
567.936214,85,1,9.1,7.2,8.3,8.530885,29,6,m
3287.603137,85,1,8.6,6.88237,9.1,8.530885,33,41,s
21.455373,88,1,7.7,6.5,7.5,8.530885,14,28,m
259.233541,60,1,9.1,7,8.8,8.530885,30,8,m
300.787749,84,1,6.8,6.4,6.4,8.530885,20,0,s
2796.223141,85,1,8.8,7,8,8,35,8,s
83.038477,50,3,7.7,6.88237,7.8,9,20,205,m
447.531183,84,1,5.2,5,8.009683,8.530885,14,0,s
133.527136,85,1,9.1,7.2,8.3,8.530885,29,9,l
4356.564574,85,1,8.6,6.88237,9.1,8.530885,33,214,s
3832.313062,80,3,8.6,6.88237,7.3,6,15,12,m
49.380489,85,1,7.4,6.88237,7.4,8.530885,26.742663,0,l
124.688842,88,1,7.7,6.5,7.5,8.530885,14,22,l
2725.499726,85,1,8.3,6.88237,8.1,8.530885,15,647,m
27.504017,50,1,7,6.88237,8.009683,8,21,6,m
31.104118,88,1,6.8,6.88237,6.8,8.530885,35,16,s
225.352834,85,1,7.7,6.5,7.7,8,48,0,s
16979.25681,85,1,9.1,6.88237,8.7,11,26.742663,33,m
69.520079,82,3,7.3,7.1,7.3,8,8,235,m
66.560104,89,1,8.8,7.2,8.5,9,22,11,l
153.885652,85,1,8.3,6.88237,8.1,8.530885,15,12,m
419.456781,85,1,9.1,7.2,8.3,8.530885,29,0,s
181.609974,89,1,8.3,6.88237,8.009683,9,22,19,m
201.597108,81,1,8.1,7.1,8.1,8.530885,18,0,m
280.747409,85,1,7.8,6.8,7.7,8,24,0,s
521.03775,60,1,9.1,7,8.8,8.530885,30,0,m
3504.915721,80,3,8.6,6.88237,7.3,6,15,25,l
65.185292,83,3,7.5,6.88237,8.009683,9,20,15,m
10520.6233,81,1,8.4,6.7,8.2,8,33,2,s
258.521837,85,1,8.4,6.88237,8.5,8.530885,15,0,m
3627.772453,80,3,8.6,6.88237,7.3,6,15,13,m
1262.888623,89,1,8.3,6.88237,8.3,11,40,0,m
261.131952,85,1,8.4,6.88237,8.5,8.530885,15,0,m
97.699481,74,1,6.2,6.88237,8.009683,8.530885,15,5,m
194.603748,85,1,8.2,6.88237,8.2,8.530885,26.742663,26,l
93.679479,85,1,9.1,7.2,8.3,8.530885,29,7,l
9734.855559,88,1,8,6.6,7.3,7,46,12,s
51.988417,82,1,8.1,6.8,7.9,8.530885,24,10,m
5091.334717,80,1,8.8,7,8,8,35,0,m
290.991526,89,1,8.8,7.2,8.5,9,22,9,l
488.963641,85,1,8.3,6.88237,8.009683,10,40,0,s
92.615796,89,1,8.2,6.88237,8.009683,8,25,9,m
98.158977,89,1,8.8,7.2,8.5,9,22,17,l
111.674722,85,1,9.1,7.2,8.3,8.530885,29,22,s
6592.46505,81,3,9.2,6.88237,8.4,10,25,0,s
3494.120254,60,1,9.1,7,8.8,8.530885,30,4,s
5972.158964,60,1,9.1,7,8.8,8.530885,30,1,m
125.309398,85,1,9.1,7.2,8.3,8.530885,29,8,m
1024.993662,87,3,9.2,6.88237,8.4,10,25,0,l
124.935162,85,1,9.1,7.2,8.3,8.530885,29,10,m
50.713335,82,1,7.3,6.88237,7.3,8.530885,33,357,s
569.599077,85,1,8.3,6.88237,8.1,8.530885,15,0,l
115.902788,85,1,9.1,7.2,8.3,8.530885,29,11,l
382.901892,85,1,7.9,6.88237,7.9,8.530885,35,0,s
1319.128071,81,1,7.7,6.88237,8.009683,8.530885,37,8,s
17013.2046,85,1,9.5,6.88237,8.5,12,33,0,m
105.798276,85,1,9.1,7.2,8.3,8.530885,29,9,l
2508.175461,60,1,9.1,7,8.8,8.530885,30,13,m
3559.47814,80,3,8.6,6.88237,7.3,6,15,0,m
16996.39575,74,1,9.1,7,8.8,8.530885,30,0,s
7232.622591,81,3,8.6,6.88237,7.3,6,15,21,l
3562.194686,80,1,8.6,6.88237,9.1,8.530885,33,0,m
121.565742,89,1,7.5,5.8,6.6,4,10,5,l
183.061097,89,1,8.3,6.88237,8.009683,9,22,11,s
3003.87785,81,1,7.9,6.4,7.4,8,24,0,s
154.635035,89,1,8.3,6.88237,8.009683,9,22,25,m
3181.166884,85,1,8.6,6.88237,9.1,8.530885,33,0,s
16745.39114,85,1,9.5,6.88237,8.5,12,33,0,m
17425.31965,85,1,9.5,6.88237,8.5,12,33,8,s
1376.036334,85,1,8.3,6.88237,7.6,8.530885,26.742663,24,s
131.623364,89,1,8.8,7.2,8.5,9,22,20,l
3037.942353,88,3,9.2,6.88237,8.4,10,25,6,s
2579.383733,60,1,9.1,7,8.8,8.530885,30,6,m
6087.298989,88,1,7.4,6.9,7.5,8.530885,36,0,s
8901.496597,81,3,8.6,6.88237,7.3,6,15,29,s
4008.174958,89,1,8.8,7.2,8.5,9,22,0,s
96.825787,85,1,9.1,7.2,8.3,8.530885,29,9,s
292.991405,85,1,7.1,6.3,7.1,9,9,0,s
2221.898762,85,1,9,6.88237,8.5,7,22,5,s
2499.063652,60,1,9.1,7,8.8,8.530885,30,7,m
3138.189925,87,1,8.8,7,8,8,35,0,s
181.4058,89,1,8.3,6.88237,8.009683,9,22,15,s
5429.532991,80,1,7.9,6.4,7.4,8,24,0,s
4987.71488,80,1,8.3,6.9,8.1,8.530885,27,0,s
1160.672739,85,1,8.3,6.5,7.8,8.530885,10,0,s
153.125808,89,1,8.8,7.2,8.5,9,22,18,m
87.718773,85,1,9.1,7.2,8.3,8.530885,29,6,l
135.291462,85,1,9.1,7.2,8.3,8.530885,29,8,m
116.481558,85,1,9.1,7.2,8.3,8.530885,29,6,m
1413.085761,89,1,8,6.6,7.3,7,46,20,s
96.619476,85,1,9.1,7.2,8.3,8.530885,29,16,l
146.434873,85,1,8.2,6.88237,8.2,8.530885,26.742663,10,l
2912.725651,89,1,9.5,6.88237,8.5,12,33,0,s
464.805887,85,1,7.9,6.88237,7.9,8.530885,35,10,s
91.608789,85,1,9.1,7.2,8.3,8.530885,29,7,l
3241.40579,85,1,8.6,6.88237,9.1,8.530885,33,0,s
95.023557,85,1,9.1,7.2,8.3,8.530885,29,9,l
97.208399,81,1,7.3,6.88237,8.009683,7,20,23.263212,s
3952.494726,80,1,8.6,6.88237,9.1,8.530885,33,48,m
12767.64357,71,1,9.1,7,8.8,8.530885,30,0,s
268.527701,60,1,7.8,5.7,7.2,8.530885,18,6,m
450.940236,60,3,8,7.7,8,10,15,7,l
145.265118,85,1,8.3,6.9,8.1,8.530885,27,6,m
37.299781,50,3,7.7,6.88237,7.8,9,20,6,l
258.108322,85,1,9.1,7.2,8.3,8.530885,29,6,s
540.774816,89,1,8.3,6.88237,8.3,11,40,0,l
17000.34694,85,1,9.5,6.88237,8.5,12,33,22,s
2725.499726,85,1,8.1,6.88237,8,8.530885,30,647,m
83.208095,85,1,9.1,7.2,8.3,8.530885,29,24,l
302.968924,81,1,8.1,7.1,8.1,8.530885,18,0,m
265.625579,85,1,9.1,7.2,8.3,8.530885,29,11,m
30.372756,50,1,7,6.88237,8.009683,8,21,5,s
12073.47009,60,1,8.1,6.88237,8.009683,9,19,2,s
10.704795,85,3,6.9,6.88237,6.9,8.530885,26.742663,10,m
96.901471,85,1,9.1,7.2,8.3,8.530885,29,7,m
124.772676,85,1,9.1,7.2,8.3,8.530885,29,8,l
134.905984,85,1,9.1,7.2,8.3,8.530885,29,11,l
2142.225975,85,1,7.5,6.5,7.5,4,11,0,s
145.142343,89,1,8.8,7.2,8.5,9,22,11,l
39.446664,89,1,8.8,7.2,8.5,9,22,29,l
94.616939,85,1,9.1,7.2,8.3,8.530885,29,9,l
121.319519,85,1,9.1,7.2,8.3,8.530885,29,9,s
188.177227,85,1,7.8,6.8,7.7,8,24,15,s
205.988221,82,1,8.1,6.8,7.9,8.530885,24,8,s
181.431379,89,1,8.3,6.88237,8.009683,9,22,16,s
82.368906,85,1,7.8,6.8,7.7,8,24,5,m
79.282767,60,1,7.8,6.5,7.3,8.530885,20,7,l
11078.93198,81,1,8.2,6.88237,8.009683,9,47,12,s
1819.296149,60,1,9.1,7,8.8,8.530885,30,10,m
844.70082,85,1,9.1,7.2,8.3,8.530885,29,9,s
4930.193438,80,1,8.8,7,8,8,35,6,s
182.51146,89,1,8.3,6.88237,8.009683,9,22,8,m
4201.313821,85,3,7,5.8,7.1,8.530885,25,0,s
4400.272363,80,3,9.2,6.88237,8.4,10,25,10,m
119.19957,85,1,9.1,7.2,8.3,8.530885,29,7,m
8904.38104,81,1,9.5,6.88237,8.5,12,33,8,m
1231.76836,60,1,8.6,7.2,8.4,8.530885,30,7,s
125.913736,85,1,9.1,7.2,8.3,8.530885,29,8,m
31.730012,50,3,7,6.88237,7.2,11,40,13,l
132.153546,85,1,9.1,7.2,8.3,8.530885,29,6,m
9608.986945,89,1,7.6,7,7.8,8.530885,17,15,s
51.971003,83,3,7.5,6.88237,8.009683,9,20,11,m
983.661312,85,1,9.1,7.2,8.3,8.530885,29,10,m
17697.48385,85,1,9.5,6.88237,8.5,12,33,8,s
69.601865,83,3,7.5,6.88237,8.009683,9,20,14,m
205.413238,50,3,7,6.88237,7.2,11,40,16,s
16.859572,85,1,7.7,6.5,7.7,8,48,9,s
131.608569,89,1,8.8,7.2,8.5,9,22,15,l
7861.567785,88,1,8.8,7,8,8,35,2,s
14064.64981,85,1,6.8,6.88237,8.009683,8.530885,93,6,s
526.986858,85,1,8.2,6.88237,8.009683,6,7,0,s
182.514916,89,1,8.3,6.88237,8.009683,9,22,8,m
192.990713,85,1,9.1,7.2,8.3,8.530885,29,9,l
253.428874,85,1,9.1,7.2,8.3,8.530885,29,7,l
44.219147,85,1,8.1,6.88237,8.3,9,45,54,m
91.376809,85,1,9.1,7.2,8.3,8.530885,29,12,l
945.26304,85,1,7,5.8,7,8.530885,15,0,s
5578.467259,60,1,9.1,7,8.8,8.530885,30,0,m
598.453173,82,1,7.7,6.4,7.9,8.530885,33,0,s
261.330374,60,1,9.1,7,8.8,8.530885,30,6,l
990.080842,60,1,9.1,7,8.8,8.530885,30,0,m
2456.660416,60,1,7.7,6.1,7.2,8.530885,20,0,s
17497.43447,85,1,9.5,6.88237,8.5,12,33,0,s
147.601179,60,1,8.4,6.9,8.5,8.530885,34,18,m
9143.306667,88,1,8.5,6.88237,8.3,11,70,0,s
2132.246477,60,1,9.1,7,8.8,8.530885,30,5,l
9.313893,85,3,7.5,6.9,7.2,9,10,8,m
260.858021,60,1,9.1,7,8.8,8.530885,30,10,l
143.207604,85,1,7.5,6.88237,8.009683,5,40,85,s
8.349298,89,1,8.30368,6.88237,8.009683,8.530885,26.742663,0,m
168.928152,85,1,7.1,6.3,7.1,8,50,6,s
406.47304,84,1,7.3,6.88237,7.3,8.530885,36,7,s
216.372543,85,1,9.1,7.2,8.3,8.530885,29,10,l
11206.75781,88,1,9.5,6.88237,8.5,12,33,157,s
11.058837,50,1,6.6,6.88237,8.009683,7,7,0,s
50.034698,83,3,7.5,6.88237,8.009683,9,20,14,l
136.645946,82,1,6.9,6.88237,8.009683,8.530885,26,0,s
41.490366,84,1,7.5,6.3,7.2,8.530885,31,0,m
94.234264,85,1,9.1,7.2,8.3,8.530885,29,5,l
2231.686138,60,1,9.1,7,8.8,8.530885,30,8,m
1364.291392,81,1,7.9,6.3,7.9,6,48,0,s
29.720203,50,1,6.5,6.88237,6.7,9,15,0,s
135.054722,85,1,9.1,7.2,8.3,8.530885,29,11,l
602.880316,85,1,9.1,7.2,8.3,8.530885,29,5,m
11405.51856,82,1,8.3,6.88237,8.009683,9,22,7,s
304.620686,81,1,7.3,6.88237,8.009683,7,20,23.263212,s
3685.919307,80,1,7.6,6.88237,8.009683,8,33,0,s
1650.678527,60,1,9.1,7,8.8,8.530885,30,9,l
183.711475,89,1,8.3,6.88237,8.009683,9,22,0,s
10040.1861,89,1,8.1,6.88237,8.009683,9,19,0,s
11153.20185,80,1,9.5,6.88237,8.5,12,33,9,m
983.697473,85,1,9.1,7.2,8.3,8.530885,29,166,m
4734.225123,85,3,8.2,6.5,8.1,9,33,0,s
6917.477249,88,1,7.8,6.88237,7.8,8.530885,25,0,s
364.627916,85,1,7.5,6.88237,8.009683,5,40,0,s
166.272055,85,1,7.7,6.6,7.6,8,17,0,m
160.979821,81,1,7,6.88237,8.009683,8.530885,29,0,s
2214.273514,85,1,7.6,6.88237,8.009683,7,32,103,s
28.205623,83,1,7.9,6.3,7.6,6,24,13,m
3782.700552,80,1,8.6,6.88237,9.1,8.530885,33,0,m
68.592294,83,1,7.6,6.88237,7.6,9,26.742663,17,m
3624.113939,80,3,8.6,6.88237,7.3,6,15,0,l
363.580247,85,3,7.6,6.88237,7.3,8.530885,10,0,s
73.46786,85,1,7,6.88237,7,8.530885,34,0,s
21.060326,84,1,6.7,6.3,6.6,8,11,7,m
14080.02988,82,1,8.8,7.2,8.5,9,22,0,s
667.884332,81,1,8.1,7.1,8.1,8.530885,18,4,m
94.202582,85,1,9.1,7.2,8.3,8.530885,29,20,l
93.767925,85,1,9.1,7.2,8.3,8.530885,29,12,l
6249.73863,80,1,9.1,7.2,8.3,8.530885,29,8,l
283.997448,85,1,9.1,7.2,8.3,8.530885,29,10,l
103.471428,85,1,9.1,7.2,8.3,8.530885,29,7,m
4500.103295,80,3,9.2,6.88237,8.4,10,25,0,m
67.641589,88,1,7.2,6.88237,8.009683,8,24,0,s
7.143258,85,3,7.5,6.9,7.2,9,10,5,m
101.734753,85,1,9.1,7.2,8.3,8.530885,29,13,l
136.80325,88,1,7.6,6.88237,8.009683,9,15,0,s
27.850049,88,9,6.3,6.88237,8.009683,9,16,0,s
966.892056,71,1,7.4,6.88237,8.009683,8.530885,10,0,s
182.589891,89,1,8.3,6.88237,8.009683,9,22,0,m
106.4466,85,1,6.5,6,6.5,8.530885,10,0,s
597.318484,85,1,8.3,6.88237,8.009683,10,40,5,s
101.676297,85,1,9.1,7.2,8.3,8.530885,29,6,m
232.597592,84,1,7.2,6.3,7.3,8.530885,21,7,s
573.915575,86,1,7.7,6.6,7.6,8,17,0,m
8345.636117,88,1,9.1,7.2,8.3,8.530885,29,0,s
18.852417,82,1,7.1,6.4,7.1,8.530885,25,19,l
116.472667,89,1,8.4,6.7,8.2,8,33,11,l
94.37728,85,1,9.1,7.2,8.3,8.530885,29,12,l
1099.192534,81,1,7.2,7.2,7.2,4,65,0,s
6284.212326,80,1,7.8,7.1,8,9,59,0,s
85.682777,85,1,9.1,7.2,8.3,8.530885,29,7,l
57.952174,85,1,6.5,6.88237,8.009683,8.530885,26.742663,0,s
654.949583,81,1,8.1,7.1,8.1,8.530885,18,11,m
16995.2524,85,1,9.5,6.88237,8.5,12,33,5,m
112.924841,84,1,6.8,6.3,7.3,8.530885,14,0,s
123.819613,85,1,9.1,7.2,8.3,8.530885,29,8,l
1752.374219,86,1,9.1,7.2,8.3,8.530885,29,7,s
3127.627273,85,1,7.6,6.88237,8.009683,7,32,25,s
17330.99266,84,1,8.5,6.88237,8.3,11,70,9,s
662.985101,60,1,9.1,7,8.8,8.530885,30,9,l
32.695907,84,1,7.1,6.1,7.1,8.530885,32,278,m
217.830887,85,1,9.1,7.2,8.3,8.530885,29,7,l
16.157827,85,3,7.5,6.9,7.2,9,10,7,m
18314.56511,84,1,8.8,7.2,8.5,9,22,21,s
15748.5917,89,1,8.8,7,8,8,35,0,s
123.475488,86,1,8.3,7.3,8.1,9,14,228,l
101.742806,85,1,9.1,7.2,8.3,8.530885,29,8,s
80.407275,85,3,7.5,6.9,7.2,9,10,5,m
15499.7359,85,1,8.1,6.4,7.7,9,23,4,s
5885.124003,80,1,8.2,6.88237,7.8,9,30,11,s
4375.011002,85,3,8.6,6.88237,7.3,6,15,0,s
269.349133,89,1,8.8,7.2,8.5,9,22,9,m
6110.419237,81,1,7.9,6.4,7.4,8,24,0,s
109.076658,85,1,9.1,7.2,8.3,8.530885,29,3,m
181.841601,89,1,8.3,6.88237,8.009683,9,22,5,l
633.527631,74,1,7.3,6.88237,8.009683,10,33,9,s
4086.780602,87,1,8.8,7,8,8,35,3,s
30.813765,50,1,7,6.88237,8.009683,8,21,5,s
4757.903594,60,1,9.1,7,8.8,8.530885,30,6,s
10468.73978,89,1,8,6.4,7.7,6,19,0,s
298.165756,81,1,8.1,7.1,8.1,8.530885,18,10,m
81.36089,85,1,7.9,6.88237,7.9,8.530885,26.742663,0,l
100.149639,81,1,8.30368,6.88237,8.009683,8.530885,26.742663,33,s
5.472724,83,3,7.5,6.88237,8.009683,9,20,13,s
181.760329,89,1,8.3,6.88237,8.009683,9,22,13,m
131.376754,85,1,9.1,7.2,8.3,8.530885,29,7,s
222.156547,85,1,9.1,7.2,8.3,8.530885,29,8,l
208.590469,81,1,8.1,7.1,8.1,8.530885,18,1,m
330.189574,89,1,7,6.88237,7,8.530885,40,0,s
66.578115,83,3,7.5,6.88237,8.009683,9,20,0,m
101.494549,85,1,8.3,6.88237,8.1,8.530885,15,4,m
37.586351,50,1,7.6,6.3,7.8,10,13,2,m
135.75385,85,1,7.5,6.88237,7.5,9,10,0,m
397.518894,85,1,7.9,6.88237,7.9,8.530885,35,69,s
18.170303,89,1,8.3,6.88237,8.009683,9,22,10,l
290.494599,85,1,9.1,7.2,8.3,8.530885,29,10,l
16970.39666,85,1,9.5,6.88237,8.5,12,33,8,m
183.533076,89,1,8.3,6.88237,8.009683,9,22,6,s
1050.234649,85,1,8.2,6.88237,8.009683,6,7,52,s
53.205533,83,3,6.8,6.88237,6.8,8.530885,40,12,m
469.044673,85,1,9.1,7.2,8.3,8.530885,29,0,s
3569.304906,80,3,8.6,6.88237,7.3,6,15,0,m
564.766428,85,1,7.8,6.8,7.7,8,24,481,s
2108.336512,89,1,8.3,6.88237,8.009683,9,22,23.263212,s
141.701645,89,1,8.3,6.88237,8.009683,9,22,12,l
127.277222,85,1,9.1,7.2,8.3,8.530885,29,8,l
12113.55922,82,1,8,6.7,7.9,8,39,0,s
3108.667792,85,3,8.2,6.5,8.1,9,33,24,s
49.096047,81,1,7.8,6.88237,8.009683,9,15,7,m
639.867313,50,1,6.4,6.1,6.4,8,3,0,s
252.27895,87,3,8.2,6.88237,8.6,11,60,0,s
1922.511121,85,1,9.1,7.2,8.3,8.530885,29,12,s
183.786834,89,1,8.3,6.88237,8.009683,9,22,5,s
258.880038,60,1,9.1,7,8.8,8.530885,30,7,s
10012.50798,88,1,9.5,6.88237,8.5,12,33,37,s
1716.582502,60,1,9.1,7,8.8,8.530885,30,11,l
6257.336383,80,1,9.1,7.2,8.3,8.530885,29,19,m
100.37668,85,1,7.9,6.88237,7.9,9,40,0,m
176.662212,81,1,8.1,7.1,8.1,8.530885,18,14,m
37.41237,86,1,6.2,5.3,6.2,8.530885,5,16,m
92.57965,85,3,7.5,6.9,7.2,9,10,11,l
290.428798,85,1,9.1,7.2,8.3,8.530885,29,11,l
71.547838,50,1,7,6.88237,8.009683,8,21,3,s
11640.38114,87,1,8.4,6.7,8.2,8,33,0,s
168.786866,81,1,8.1,7.1,8.1,8.530885,18,18,m
228.292589,60,1,7.8,5.7,7.2,8.530885,18,6,m
15152.00282,89,1,8.8,7,8,8,35,0,m
71.377118,89,1,8.1,6.6,7.6,9,13,0,s
6816.528127,88,1,8.4,6.88237,8.5,8.530885,15,12,s
200.683514,85,1,8.3,6.88237,8.1,8.530885,15,10,s
627.338703,82,1,6.9,6.88237,8.009683,7,20,23.263212,s
150.523603,89,1,7.2,6.88237,7.2,10,26.742663,42,m
120.205185,85,1,7.7,6.6,7.6,8,17,0,m
980.807372,84,1,7.8,6.8,7.7,8,24,0,s
14046.15457,88,1,8.1,6.88237,8.009683,8.530885,48,0,s
181.675971,89,1,8.3,6.88237,8.009683,9,22,13,m
2725.499726,82,1,8.30368,6.88237,8.009683,8.530885,26.742663,16,s
122.138575,88,1,7.3,6.88237,8.009683,8.530885,28,6,m
98.424013,89,1,8.8,7.2,8.5,9,22,14,l
98.224761,89,1,8.8,7.2,8.5,9,22,15,l
4791.033029,80,1,8.8,7,8,8,35,0,s
175.329064,89,1,7.5,5.8,6.6,4,10,0,m
54.088572,89,1,8,6.7,7.9,8,39,12,m
4517.957648,89,1,8.2,6.88237,8.009683,9,47,8,s
29.515453,74,3,7,6.8,7.3,8.530885,13,4,s
3847.366685,80,1,7.9,6.88237,8.009683,4,14,0,s
17007.39935,85,1,9.5,6.88237,8.5,12,33,11,m
64.31559,83,3,7.5,6.88237,8.009683,9,20,19,l
123.45378,85,1,9.1,7.2,8.3,8.530885,29,8,l
2432.201034,85,1,7.8,7.1,8,9,59,24,s
181.641309,89,1,8.3,6.88237,8.009683,9,22,15,m
11.943346,50,1,6.6,6.88237,8.009683,7,7,2,s
96.603325,85,1,9.1,7.2,8.3,8.530885,29,14,l
10558.96067,81,1,8.5,6.88237,8.5,11,25,0,m
374.026168,85,1,8.4,6.88237,8.5,8.530885,15,9,m
449.333471,88,1,7.4,6.6,7.6,8,20,0,s
103.019156,86,1,9,6.88237,8.5,7,22,92,m
78.539833,85,1,9.1,7.2,8.3,8.530885,29,18,l
153.844893,85,1,9.1,7.2,8.3,8.530885,29,10,l
514.964014,85,1,8.4,6.88237,8.5,8.530885,15,15,m
234.286619,85,1,7.5,6.88237,8.009683,5,40,10,s
2100.427838,85,1,9,6.88237,8.5,7,22,0,m
408.346539,85,1,9.1,7.2,8.3,8.530885,29,3,m
3733.045546,85,1,8.7,7.7,7.8,6,30,0,s
7172.638225,88,1,8.2,6.88237,8.009683,6,7,0,s
181.579868,89,1,8.3,6.88237,8.009683,9,22,14,m
4110.335051,80,1,7.8,6.2,7.2,8.530885,33,5,s
96.322791,85,1,9.1,7.2,8.3,8.530885,29,9,s
3422.638992,85,1,7.9,6.6,7.6,6,33,0,s
341.951877,85,1,8.1,6.88237,8.3,9,45,0,m
140.047472,83,1,7.1,6.88237,8.009683,5,45,0,s
56.863431,89,1,7.6,6.88237,8.009683,7,38,0,s
2191.759792,60,1,9.1,7,8.8,8.530885,30,0,m
14240.0892,85,1,8.1,6.4,7.7,9,23,0,s
10451.45725,80,1,8.3,6.88237,8.3,11,40,0,m
26.956944,50,1,7.6,6.3,7.8,10,13,5,s
3891.671614,85,1,7.6,6.4,7.6,6,50,0,s
6308.435662,80,1,9.1,7.2,8.3,8.530885,29,0,s
7190.364146,81,1,9.1,7.2,8.3,8.530885,29,5,s
2725.499726,85,1,8.3,6.88237,8.1,8.530885,15,647,m
95.834042,85,1,9.1,7.2,8.3,8.530885,29,6,l
4229.392577,85,1,7.9,6.6,7.6,6,33,0,s
28.882268,85,5,6.4,6.88237,6.4,8.530885,26.742663,0,l
10430.84661,88,1,8.3,6.88237,8.009683,9,22,12,s
104.177637,88,1,7.7,6.5,7.5,8.530885,14,17,l
61.319941,89,1,8.4,6.7,8.2,8,33,51,m
182.907736,89,1,8.3,6.88237,8.009683,9,22,14,m
43.675446,60,1,7.8,6.5,7.3,8.530885,20,6,m
411.57434,85,1,9.1,7.2,8.3,8.530885,29,7,m
641.918754,60,1,9.1,7,8.8,8.530885,30,60,l
548.109077,85,1,9.1,7.2,8.3,8.530885,29,7,m
3623.814821,88,3,8.6,6.88237,7.3,6,15,10,m
219.907963,60,1,7.7,6.1,7.2,8.530885,20,6,m
184.569988,84,1,6.7,6.5,6.7,8.530885,13,21,s
332.891452,84,1,8.7,6.88237,8.7,9,33,6,m
130.734824,85,1,9.1,7.2,8.3,8.530885,29,7,s
5012.722421,80,1,8.2,6.88237,8,10,60,0,s
10710.37818,81,1,9,6.88237,8.5,7,22,23,s
182.395428,88,1,7.4,6.6,7.6,8,20,8,s
3997.375139,81,1,7.9,6.88237,7.9,9,47,0,s
110.413105,89,1,8.3,6.88237,8.009683,9,22,13,m
4479.493951,87,1,9.1,7.2,8.3,8.530885,29,0,s
98.275087,85,1,8.3,6.9,8.1,8.530885,27,7,m
10637.96398,80,1,9.5,6.88237,8.5,12,33,35,m
280.708899,85,1,7.7,6.6,7.6,8,17,0,s
15885.11988,85,1,8.1,6.6,7.6,9,13,0,s
5945.970359,60,1,9.1,7,8.8,8.530885,30,2,m
15837.52726,85,1,8.2,6.88237,8.009683,8,25,6,s
87.13148,85,1,7.2,6.88237,8.009683,8.530885,40,8,s
44.772314,82,1,8.1,6.8,7.9,8.530885,24,16,m
3829.411948,85,1,7.4,6.3,7.4,6,73,69,s
24.8152,85,3,7.6,6.88237,7.3,8.530885,10,18,s
5008.857081,85,3,9.2,6.88237,8.4,10,25,5,s
23.790718,50,3,7,6.88237,7.2,11,40,0,l
288.961259,85,1,9.1,7.2,8.3,8.530885,29,11,l
897.767389,85,0,8.30368,4.9,8.009683,8.530885,10,124,s
627.203523,85,1,8.2,6.88237,7.8,9,30,0,s
14132.02914,80,1,7.8,6.88237,7.8,8,47,6,s
11169.31523,80,1,9.5,6.88237,8.5,12,33,0,m
126.891665,85,1,7.1,6.88237,8.009683,8.530885,25,10,s
3901.094395,80,1,8,6.4,7.7,6,19,0,s
176.754151,89,1,8.8,7.2,8.5,9,22,13,m
27.673723,50,1,7,6.88237,8.009683,8,21,7,m
132.061219,85,1,9.1,7.2,8.3,8.530885,29,6,m
48.478709,87,3,8.2,6.88237,8.6,11,60,0,l
19.836357,85,3,7.5,6.9,7.2,9,10,5,m
6240.513947,80,1,9.1,7.2,8.3,8.530885,29,12,m
3649.483176,80,1,8.6,6.88237,9.1,8.530885,33,0,l
191.402173,89,1,9.5,6.88237,8.5,12,33,9,l
181.441219,89,1,8.3,6.88237,8.009683,9,22,21,s
12615.30928,87,1,8.2,6.88237,8.009683,8,25,0,s
211.751118,85,1,8.3,6.9,8.1,8.530885,27,0,m
175.815754,85,1,9.1,7.2,8.3,8.530885,29,6,l
1691.195854,60,1,9.1,7,8.8,8.530885,30,8,l
181.431156,89,1,8.3,6.88237,8.009683,9,22,19,s
282.981891,85,1,9.1,7.2,8.3,8.530885,29,8,l
10559.84839,88,1,8.8,7.2,8.5,9,22,0,s
181.650258,89,1,8.3,6.88237,8.009683,9,22,13,m
69.478939,83,3,7.5,6.88237,8.009683,9,20,7,m
5383.303166,88,1,9.5,6.88237,8.5,12,33,3,s
17.186079,82,1,7.1,6.4,7.1,8.530885,25,43,l
116.194901,85,1,9.1,7.2,8.3,8.530885,29,23,l
4843.675906,80,1,9,6.88237,8.5,7,22,17,m
40.443162,89,1,8.3,6.88237,8.009683,9,22,20,m
4949.5752,80,1,9,6.88237,8.5,7,22,0,m
121.252562,85,1,8.3,6.9,8.1,8.530885,27,32,s
45.730703,85,3,7.5,6.9,7.2,9,10,7,m
451.67357,85,1,9.1,7.2,8.3,8.530885,29,24,m
469.628199,85,1,7.7,6.8,7.7,8,44,0,s
565.759803,85,0,8.30368,4.9,8.009683,8.530885,10,100,s
178.756304,85,1,7.8,6.8,7.7,8,24,0,l
51.844227,83,3,7.5,6.88237,8.009683,9,20,13,s
170.30885,85,1,8.1,6.88237,8,8.530885,30,8,s
100.222359,85,1,9.1,7.2,8.3,8.530885,29,16,l
13168.9229,89,1,9.1,7.2,8.3,8.530885,29,7,l
449.646269,85,1,9.1,7.2,8.3,8.530885,29,7,m
181.298461,89,1,8.3,6.88237,8.009683,9,22,20,s
65.18473,85,1,8.3,6.9,8.1,8.530885,27,0,s
5039.573803,60,1,9.1,7,8.8,8.530885,30,11,l
2784.988167,88,3,8.6,6.88237,7.3,6,15,64,m
226.783617,85,1,7.4,6.88237,7.4,8.530885,26.742663,50,m
883.374376,85,1,7.7,6.5,7.7,8,48,26,s
220.078787,60,1,7.7,6.1,7.2,8.530885,20,6,l
2093.024132,85,1,9,6.88237,8.5,7,22,0,m
24.673499,85,5,6.4,6.88237,6.4,8.530885,26.742663,7,l
267.779072,60,1,9.1,7,8.8,8.530885,30,28,l
181.440026,89,1,8.3,6.88237,8.009683,9,22,11,m
36.333357,60,3,7.8,6.5,7.5,11,28,0,m
7222.967022,81,1,8.8,7.2,8.5,9,22,9,s
180.788214,85,1,9.1,7.2,8.3,8.530885,29,15,s
17063.72984,85,1,9.5,6.88237,8.5,12,33,0,s
6339.468305,85,3,9.2,6.88237,8.4,10,25,0,s
124.703584,60,1,8.4,6.9,8.5,8.530885,34,12,m
17074.68752,85,1,9.5,6.88237,8.5,12,33,0,s
5525.440042,80,1,7.5,6.4,7.3,8.530885,33,0,s
197.76305,85,1,7.7,6.88237,7.7,8.530885,26.742663,104,m
302.714043,85,1,8.2,6.88237,8.009683,6,7,45,s
11461.78903,82,1,8.3,6.88237,8.009683,9,22,9,s
153.561302,85,1,9.1,7.2,8.3,8.530885,29,11,m
126.788096,85,1,8.3,6.9,8.1,8.530885,27,15,m
181.280358,89,1,8.3,6.88237,8.009683,9,22,18,s
182.725542,89,1,8.3,6.88237,8.009683,9,22,24,s
523.841781,89,1,7.2,6.88237,8.009683,8.530885,28,23.263212,s
177.494662,85,1,8.2,6.88237,8.2,8.530885,26.742663,6,m
17017.97077,85,1,9.5,6.88237,8.5,12,33,18,s
2336.423632,81,1,7.7,6.88237,8.009683,7,10,0,s
182.769712,89,1,8.3,6.88237,8.009683,9,22,11,m
10697.94308,80,1,9.5,6.88237,8.5,12,33,0,l
66.857127,86,1,5.8,6.88237,5.8,8.530885,26.742663,320,m
227.99062,82,1,6.6,6.88237,8.009683,3,22,0,s
133.973971,85,1,9.1,7.2,8.3,8.530885,29,8,l
3565.31723,80,1,8.6,6.88237,9.1,8.530885,33,19,l
551.571514,85,1,7.5,6.4,7.5,6,33,4,s
82.52277,89,1,6.9,6.7,7,8.530885,11,0,s
190.130617,81,1,8.1,7.1,8.1,8.530885,18,17,l
2731.646716,82,1,6.9,6.88237,8.009683,8.530885,20,14,s
124.658283,85,1,9.1,7.2,8.3,8.530885,29,6,l
117.259488,85,1,9.1,7.2,8.3,8.530885,29,9,m
97.603684,85,1,9.1,7.2,8.3,8.530885,29,13,l
181.856188,89,1,8.3,6.88237,8.009683,9,22,5,l
17648.35701,85,1,9.5,6.88237,8.5,12,33,0,s
130.774158,85,1,9.1,7.2,8.3,8.530885,29,6,l
38.963193,60,1,7.8,6.5,7.3,8.530885,20,10,l
17952.20366,85,1,8.3,6.88237,8.009683,9,22,103,s
136.515174,85,1,9.1,7.2,8.3,8.530885,29,13,l
2035.720149,85,1,9,6.88237,8.5,7,22,0,m
4016.977324,80,1,8.6,6.88237,9.1,8.530885,33,0,m
3991.288255,85,1,8.8,7,8,8,35,12,s
41.10761,85,1,8.3,6.88237,8.1,8.530885,15,0,m
10218.75887,88,1,8.8,7.2,8.5,9,22,12,s
38.143665,74,1,7,6.88237,7,9,25,62,s
268.761997,60,1,7.8,5.7,7.2,8.530885,18,15,l
182.17207,85,1,7.8,6.8,7.7,8,24,0,s
485.625574,82,1,7.5,6.88237,8.009683,8.530885,10,12,s
1408.074979,89,1,8.3,6.88237,8.3,11,40,48,s
13.923401,84,1,7.1,6.1,7.1,8.530885,32,7,m
2725.499726,85,5,6.4,6.88237,6.4,8.530885,26.742663,647,l
123.950017,85,1,9.1,7.2,8.3,8.530885,29,7,l
12989.47867,80,1,8.1,6.88237,7.5,9,38,6,s
207.963776,81,1,8.1,7.1,8.1,8.530885,18,45,m
443.487687,85,1,7.7,6.5,7.7,8,48,20,s
7358.577389,81,1,8.8,7.2,8.5,9,22,0,m
104.198307,85,1,9.1,7.2,8.3,8.530885,29,6,m
4554.016453,81,1,8.8,7,8,8,35,18,s
3510.606727,88,3,8.6,6.88237,7.3,6,15,0,s
117.023396,85,1,9.1,7.2,8.3,8.530885,29,9,s
1768.214886,88,3,9.2,6.88237,8.4,10,25,291,s
259.935597,60,1,9.1,7,8.8,8.530885,30,8,l
4495.867327,82,1,9.1,7.2,8.3,8.530885,29,0,s
323.838982,85,1,9.1,7.2,8.3,8.530885,29,6,l
1350.592795,85,1,9.1,7.2,8.3,8.530885,29,10,s
59.830921,60,1,7.8,6.5,7.3,8.530885,20,7,s
240.691026,60,1,7.8,5.7,7.2,8.530885,18,8,l
206.370489,81,1,8.1,7.1,8.1,8.530885,18,30,m
160.301711,82,1,8.1,6.8,7.9,8.530885,24,25,m
820.924698,85,1,6.9,6.7,6.9,8.530885,10,0,s
182.480199,89,1,8.3,6.88237,8.009683,9,22,16,s
10804.86958,81,1,9.5,6.88237,8.5,12,33,5,s
143.454553,82,1,7.1,7.4,7.7,8.530885,31,0,s
867.66369,85,1,9.1,7.2,8.3,8.530885,29,0,s
458.580545,87,1,7.9,6.88237,8.009683,4,14,0,s
4432.003517,60,1,9.1,7,8.8,8.530885,30,8,s
53.623141,83,3,7.5,6.88237,8.009683,9,20,14,m
4036.261851,88,1,7.9,6.6,7.6,6,33,12,s
6147.02163,60,1,9.1,7,8.8,8.530885,30,0,m
2725.499726,60,3,7.8,6.5,7.5,11,28,647,m
437.710028,85,1,8.4,6.88237,8.4,8.530885,26.742663,7,s
7062.323284,88,1,9.1,7.2,8.3,8.530885,29,23.263212,s
270.714182,60,1,7.8,5.7,7.2,8.530885,18,19,m
5011.037263,80,1,9,6.88237,8.5,7,22,0,m
335.172035,85,1,7.1,6.88237,8.009683,6,35,0,s
2050.278836,60,1,8.4,6.9,8.5,8.530885,34,23.263212,s
3665.677592,80,3,8.6,6.88237,7.3,6,15,0,l
1748.569577,81,1,7.6,7,7.6,8.530885,34,5,s
238.17335,89,1,8.3,6.88237,8.009683,9,22,17,m
2725.499726,85,5,6.4,6.88237,6.4,8.530885,26.742663,647,m
50.925453,85,1,8.1,6.88237,8.3,9,45,9,m
218.725797,85,1,9.1,7.2,8.3,8.530885,29,15,l
16164.85854,85,1,8.1,6.88237,7.5,9,38,0,s
1982.650803,87,1,8.7,7.7,7.8,6,30,11,s
100.286642,86,1,7.7,6.5,7.7,8,48,101,m
201.511035,81,1,8.1,7.1,8.1,8.530885,18,20,l
136.116301,85,1,8.3,6.9,8.1,8.530885,27,0,s
182.573359,89,1,8.3,6.88237,8.009683,9,22,0,m
30.770328,50,1,7,6.88237,8.009683,8,21,5,m
4092.898992,85,3,7,5.8,7.1,8.530885,25,0,s
10645.09725,80,1,9.5,6.88237,8.5,12,33,0,m
97.526826,85,1,9.1,7.2,8.3,8.530885,29,5,m
188.959006,85,1,9.1,7.2,8.3,8.530885,29,13,l
6530.763501,88,1,8.3,6.5,7.8,8.530885,10,0,s
124.154065,85,1,9.1,7.2,8.3,8.530885,29,6,m
1791.339387,60,1,9.1,7,8.8,8.530885,30,10,l
124.824095,89,1,7.5,5.8,6.6,4,10,8,m
6306.108976,80,1,9.1,7.2,8.3,8.530885,29,11,m
10610.77465,80,1,9.5,6.88237,8.5,12,33,0,m
1837.87846,73,1,8.5,6.88237,8.5,9,26.742663,7,m
261.370952,60,1,9.1,7,8.8,8.530885,30,8,m
7.466255,50,3,7,6.88237,7.2,11,40,6,l
101.411855,85,1,9.1,7.2,8.3,8.530885,29,7,s
1725.796284,85,1,8.5,7.7,8.1,9,13,72,s
161.788159,81,1,7.5,6.88237,8.009683,9,26.742663,12,l
213.353898,85,1,9.1,7.2,8.3,8.530885,29,15,l
277.602619,86,1,7,6.3,7,5,41,27,s
1196.573124,88,1,8.2,6.88237,8.009683,9,47,0,s
3806.057197,80,3,8.6,6.88237,7.3,6,15,9,l
5822.198891,88,1,8.1,7.3,8.2,8.530885,10,0,s
121.458533,85,1,9.1,7.2,8.3,8.530885,29,7,m
5932.311008,80,1,9.1,7.2,8.3,8.530885,29,11,m
1352.021597,85,1,5.7,6.88237,8.009683,8.530885,10,87,s
1788.079959,89,1,7.7,6.7,7.4,8,40,23.263212,s
3159.162464,85,1,7.6,6.88237,8.009683,7,32,0,s
1790.835611,81,1,8.1,6.6,8.1,7,33,0,s
9372.294961,88,1,8.1,6.88237,8.009683,9,19,0,s
47.472439,89,1,8.8,7.2,8.5,9,22,29,l
10255.30417,80,1,8.2,6.88237,8.009683,8,25,5,s
36.06074,89,1,8.8,7.2,8.5,9,22,19,l
3603.189509,80,3,8.6,6.88237,7.3,6,15,39,m
232.532697,85,1,8.4,6.88237,8.5,8.530885,15,0,l
9412.589644,88,1,7.5,6.4,7.3,8.530885,33,33,s
241.947293,85,1,9.1,7.2,8.3,8.530885,29,6,l
3895.98909,80,1,8.7,7.7,7.8,6,30,0,s
96.924712,86,1,8.30368,6.88237,8.009683,8.530885,26.742663,1,l
2141.430594,60,1,7.7,6.1,7.2,8.530885,20,0,s
6686.275187,88,1,9.5,6.88237,8.5,12,33,8,s
147.043047,89,1,8.8,7.2,8.5,9,22,12,l
5.720183,85,3,7.5,6.9,7.2,9,10,3,m
18.912906,50,1,6.6,6.88237,8.009683,7,7,5,s
377.192164,85,0,8.30368,4.9,8.009683,8.530885,10,0,s
7424.370256,88,1,8.3,6.88237,8.009683,9,22,2,s
283.015095,85,1,8.2,6.88237,8.009683,6,7,0,m
13.618707,50,1,7.3,6.88237,7.1,10,60,8,m
17481.29605,85,1,9.5,6.88237,8.5,12,33,95,m
3872.188444,85,3,8.2,6.5,8.1,9,33,67,s
125.88165,85,1,9.1,7.2,8.3,8.530885,29,7,m
182.828096,89,1,8.3,6.88237,8.009683,9,22,19,s
4532.542516,60,1,9.1,7,8.8,8.530885,30,6,m
164.420133,85,1,8.2,6.88237,8.009683,6,7,0,m
140.997283,89,1,8.3,6.88237,8.009683,9,22,14,l
1235.053655,87,1,7.8,6.88237,8.009683,8,28,23.263212,s
93.243347,89,1,6.8,6.88237,8.009683,8.530885,93,7,l
62.89785,85,1,7.3,6.88237,8.009683,8.530885,20,0,s
161.01924,86,1,8.3,6.5,7.8,8.530885,10,0,l
169.188479,83,1,7.8,6.88237,7.8,7,26.742663,0,m
8467.088656,87,1,8,7.2,7.8,7,55,15,s
1275.501374,84,1,7.6,7.2,7.6,8.530885,28,23.263212,s
126.360609,85,1,9.1,7.2,8.3,8.530885,29,7,l
8769.270844,81,1,9.5,6.88237,8.5,12,33,0,m
1173.521044,82,1,7.8,6.88237,8.009683,8,40,12,s
101.929167,85,1,9.1,7.2,8.3,8.530885,29,9,l
9425.611477,80,1,8,6.7,7.9,8,39,5,s
96.452891,85,1,8.3,6.9,8.1,8.530885,27,8,m
7142.240771,87,1,8.1,6.8,7.9,8.530885,24,8,s
8729.893475,81,1,9.5,6.88237,8.5,12,33,13,s
258.95132,60,1,9.1,7,8.8,8.530885,30,6,l
35.418019,87,1,8.30368,6.88237,8.009683,8.530885,26.742663,249,l
302.375907,89,1,8.8,7.2,8.5,9,22,15,m
443.325226,85,1,9.1,7.2,8.3,8.530885,29,5,m
30.660917,50,1,7,6.88237,8.009683,8,21,7,s
118.769958,89,1,8.1,6.88237,7.5,9,38,76,m
2133.155947,88,1,8.2,6.88237,8.009683,8,32,23.263212,s
401.06837,85,1,6.7,6.88237,6.7,8.530885,20,6,s
130.671655,85,1,9.1,7.2,8.3,8.530885,29,5,l
24.821099,50,3,7.2,6.88237,7.8,10,15,154,m
134.673962,85,1,9.1,7.2,8.3,8.530885,29,8,l
44.728053,82,1,8.1,6.8,7.9,8.530885,24,16,m
9862.151873,89,1,7.9,6.6,7.6,6,33,15,s
60.788123,84,1,7,6.88237,8.009683,9,10,0,s
824.582937,85,1,8.5,7.7,8.1,9,13,0,s
182.177243,89,1,8.3,6.88237,8.009683,9,22,7,l
30.637754,50,1,7,6.88237,8.009683,8,21,5,s
2504.991917,60,1,9.1,7,8.8,8.530885,30,12,m
48.341641,60,1,7.8,6.5,7.3,8.530885,20,8,m
2579.155592,60,1,9.1,7,8.8,8.530885,30,2,m
7981.57086,88,1,8.3,6.88237,8.3,8.530885,25,5,s
472.661463,85,1,9.1,7.2,8.3,8.530885,29,4,m
2589.40886,80,1,8.6,6.88237,9.1,8.530885,33,0,s
100.761283,85,1,9.1,7.2,8.3,8.530885,29,6,m
1797.314792,73,1,8.5,6.88237,8.5,9,26.742663,0,s
83.827373,85,1,7.8,6.8,7.7,8,24,7,l
2522.230454,60,1,9.1,7,8.8,8.530885,30,13,m
266.626718,85,1,9.1,7.2,8.3,8.530885,29,10,m
64.969378,82,1,7.6,6.5,7.8,8.530885,13,20,m
412.46256,85,1,8.2,6.88237,8.009683,6,7,0,m
96.683065,85,1,9.1,7.2,8.3,8.530885,29,22,l
609.740184,85,1,9.1,7.2,8.3,8.530885,29,9,s
70.531656,83,3,5.8,6.88237,8.009683,6,10,0,s
40.387671,89,1,8.3,6.88237,8.009683,9,22,8,m
4460.782213,83,1,9.1,7.2,8.3,8.530885,29,12,s
187.387746,81,1,8.1,7.1,8.1,8.530885,18,15,l
251.926264,89,1,8.8,7.2,8.5,9,22,8,l
1529.431919,88,1,7.9,6.88237,8.009683,4,14,0,s
738.254805,85,1,9.1,7.2,8.3,8.530885,29,7,s
66.945574,84,1,7.1,6.4,7.4,8.530885,33,0,s
7616.039491,81,1,9.5,6.88237,8.5,12,33,6,s
3129.349565,85,1,8.6,6.88237,9.1,8.530885,33,6,s
664.378609,60,1,9.1,7,8.8,8.530885,30,13,m
92.264791,85,1,9.1,7.2,8.3,8.530885,29,7,l
30.27194,50,1,7,6.88237,8.009683,8,21,5,s
96.21515,85,1,9.1,7.2,8.3,8.530885,29,9,s
181.639113,89,1,8.3,6.88237,8.009683,9,22,13,m
246.864393,85,1,8.2,6.88237,8.009683,6,7,28,m
645.730546,85,1,8.2,6.88237,8.009683,6,7,0,s
97.617969,85,1,7.1,6.88237,8.009683,9,49,11,s
51.741901,50,1,7,6.88237,8.009683,8,21,3,s
16839.18836,85,1,9.5,6.88237,8.5,12,33,0,m
1528.850915,81,1,7.8,6.5,7.7,8.530885,12,0,s
16762.38733,85,1,9.5,6.88237,8.5,12,33,0,m
181.510473,88,1,7.6,6.5,7.6,8.530885,49,8,s
594.663191,73,1,7.8,6.88237,8.3,9,10,0,s
160.273876,82,1,8.1,6.8,7.9,8.530885,24,24,m
131.426863,85,1,9.1,7.2,8.3,8.530885,29,7,m
9702.240133,81,1,9.1,7.2,8.3,8.530885,29,3,m
4123.887398,85,3,7,5.8,7.1,8.530885,25,52,s
54.345086,89,1,8,6.7,7.9,8,39,16,m
136.158992,85,1,9.1,7.2,8.3,8.530885,29,21,l
13237.99048,89,1,9.1,7.2,8.3,8.530885,29,2,m
232.399027,85,1,8.4,6.88237,8.5,8.530885,15,0,l
65.122052,85,1,7.7,6.5,7.7,8,48,57,m
212.517933,85,1,6.5,6,6.6,8.530885,10,69,s
6024.775153,87,1,9.1,7.2,8.3,8.530885,29,61,s
180.12572,85,1,8.3,6.88237,7.6,8.530885,26.742663,0,m
5318.203694,85,1,7.9,6.3,7.9,6,48,4,s
57.210908,89,1,7.2,6.88237,7.2,10,26.742663,48,m
9051.526861,81,1,8.2,6.88237,8.009683,9,47,0,s
58.298486,50,1,6.1,6.88237,8.009683,9,33,0,s
7.711193,84,1,6.7,6.3,6.6,8,11,0,m
17595.60351,85,1,9.5,6.88237,8.5,12,33,4,m
133.965851,85,1,9.1,7.2,8.3,8.530885,29,6,l
16792.06493,85,1,9.5,6.88237,8.5,12,33,3,s
17822.01544,85,1,9.5,6.88237,8.5,12,33,7,s
250.106935,60,1,8.30368,6.88237,8.009683,11,26.742663,21,m
112.155751,85,1,7,6.1,6.8,8.530885,10,69,s
87.452713,85,1,9.1,7.2,8.3,8.530885,29,7,l
237.982768,85,1,6.9,6.88237,6.9,8.530885,30,11,s
124.228581,89,1,8.4,6.7,8.2,8,33,0,l
9288.793719,88,1,7.9,6.4,7.4,8,24,33,s
614.643148,82,1,7.4,6.88237,8.009683,8.530885,39,23.263212,s
131.567889,85,1,9.1,7.2,8.3,8.530885,29,7,m
1654.445069,60,1,9.1,7,8.8,8.530885,30,9,l
8770.803617,80,1,8.1,6.4,7.7,9,23,0,s
160.969878,86,1,8.3,6.5,7.8,8.530885,10,0,l
119.424015,85,1,9.1,7.2,8.3,8.530885,29,9,l
97.087498,60,3,7.8,6.5,7.5,11,28,84,l
7.736396,85,3,7.5,6.9,7.2,9,10,2,m
14.125358,85,3,7.5,6.9,7.2,9,10,7,m
2496.239793,60,1,9.1,7,8.8,8.530885,30,0,m
593.529637,85,3,7.5,6.9,7.2,9,10,8,s
9322.683219,88,1,8.3,6.88237,8.009683,9,22,0,s
2492.707591,60,1,9.1,7,8.8,8.530885,30,8,m
322.617479,85,1,7.8,6.8,7.7,8,24,105,s
551.986022,81,1,6.9,6.5,6.9,8.530885,10,9,s
98.330216,85,3,7.5,6.9,7.2,9,10,4,m
76.597259,85,1,7.9,6.88237,7.9,8.530885,26.742663,0,l
303.356618,50,1,6.8,6.5,6.9,10,12,11,s
5305.153717,88,1,9,6.88237,8.5,7,22,9,s
164.420133,85,1,8.2,6.88237,8.009683,6,7,0,m
1803.329477,87,1,8.1,7.3,8.2,8.530885,10,23.263212,s
9084.31383,88,1,8,7.2,7.8,7,55,0,s
3996.585912,88,1,8.6,6.88237,9.1,8.530885,33,0,s
132.416594,85,1,9.1,7.2,8.3,8.530885,29,6,l
6307.717269,80,1,9.1,7.2,8.3,8.530885,29,0,m
12724.37955,88,1,9.1,7,8.8,8.530885,30,0,s
153.97517,85,1,8.3,6.9,8.1,8.530885,27,0,m
1105.255142,88,1,7.8,6.88237,8.009683,9,21,3,s
317.711565,71,1,7.4,6.88237,8.009683,3,10,0,s
254.635048,85,1,8.2,6.88237,8.009683,6,7,0,s
1926.46181,87,1,8.5,7.7,8.1,9,13,0,s
39.806254,89,3,6.2,6.1,6.3,7,37,5,l
5041.243165,80,1,8.8,7,8,8,35,0,s
63.539477,89,1,8.3,6.88237,8.009683,9,22,4,m
92.570901,85,3,7.5,6.9,7.2,9,10,9,l
181.613394,89,1,8.3,6.88237,8.009683,9,22,17,m
181.65258,89,1,8.8,7.2,8.5,9,22,21,l
183.085065,89,1,8.3,6.88237,8.009683,9,22,13,s
9037.661803,81,1,8.1,6.88237,8.009683,8.530885,48,23.263212,s
94.609907,85,1,9.1,7.2,8.3,8.530885,29,6,m
1761.560677,60,1,9.1,7,8.8,8.530885,30,8,l
10749.32954,88,1,8.8,7,8,8,35,0,s
69.467757,83,3,7.5,6.88237,8.009683,9,20,10,m
715.523797,86,1,9.1,7.2,8.3,8.530885,29,8,m
95.94093,85,1,9.1,7.2,8.3,8.530885,29,6,m
562.129329,84,3,7.5,6.9,7.2,9,10,10,s
173.634858,60,1,8.5,6.88237,8.5,9,70,0,l
466.369462,85,1,8.1,6.88237,8.3,9,45,111,m
2457.934325,89,1,8,6.8,8.1,9,28,15,s
10919.2395,81,1,9.5,6.88237,8.5,12,33,10,s
257.835922,85,1,9.1,7.2,8.3,8.530885,29,8,l
132.048156,82,1,7.6,6.5,7.8,8.530885,13,14,s
86.093538,85,1,7.8,6.8,7.7,8,24,85,m
2085.982713,85,1,9,6.88237,8.5,7,22,29,m
11112.02857,88,1,9.1,7.2,8.3,8.530885,29,8,s
16987.50051,85,1,9.5,6.88237,8.5,12,33,27,m
67.159421,82,1,8.1,6.8,7.9,8.530885,24,18,s
952.29918,89,1,7.8,6.88237,7.8,8,47,9,s
91.933599,85,1,9.1,7.2,8.3,8.530885,29,11,l
507.195339,85,1,7.5,6.4,7.5,6,33,19,s
467.544251,85,1,9.1,7.2,8.3,8.530885,29,4,m
251.468081,85,1,8.4,6.88237,8.5,8.530885,15,0,m
71.851385,85,1,8.3,6.9,8.1,8.530885,27,6,m
85.106215,85,1,8.1,6.88237,8,8.530885,30,205,l
63.57571,85,3,7.5,6.9,7.2,9,10,4,s
67.306701,89,1,8,6.7,7.9,8,39,11,l
183.009976,89,1,8.3,6.88237,8.009683,9,22,11,s
78.176448,85,1,9.1,7.2,8.3,8.530885,29,23,l
35.497702,60,1,7.8,6.5,7.3,8.530885,20,11,m
2492.793555,85,1,7.8,7.1,8,9,59,95,s
1821.152763,82,1,8.1,6.88237,8.009683,9,19,0,s
538.192196,85,1,9.1,7.2,8.3,8.530885,29,6,s
189.39684,50,3,7,6.88237,7.2,11,40,5,l
153.541592,85,1,9.1,7.2,8.3,8.530885,29,12,l
2015.649454,60,1,9.1,7,8.8,8.530885,30,0,l
105.758439,85,1,6.9,6.88237,6.9,8.530885,30,0,s
104.323541,85,1,8.1,6.88237,8,8.530885,30,0,m
16454.09459,89,1,8.3,7.3,8.1,9,14,62,s
11382.28688,88,1,9.5,6.88237,8.5,12,33,85,s
600.273313,89,1,8.4,6.7,8.2,8,33,0,s
16986.70912,85,1,9.5,6.88237,8.5,12,33,29,l
132.21873,85,1,7.6,6.88237,7.6,8.530885,30,0,s
118.48383,88,1,7.6,5.4,7.7,8.530885,30,8,s
92.373854,85,1,9.1,7.2,8.3,8.530885,29,9,l
407.197375,74,1,7.3,6.88237,8.009683,10,33,30,l
3682.036551,87,1,9,6.88237,8.5,7,22,14,s
7351.033987,81,1,8.8,7.2,8.5,9,22,5,m
8972.008848,81,1,8.8,7.2,8.5,9,22,0,s
9857.071231,89,3,8.6,6.88237,7.3,6,15,7,s
10610.39162,88,1,8.5,7.7,8.1,9,13,0,s
11168.09005,80,1,9.5,6.88237,8.5,12,33,9,m
801.97612,85,1,9.1,7.2,8.3,8.530885,29,136,s
286.132357,85,1,7.6,6.5,7.6,6,33,0,s
47.414078,60,1,7.8,6.5,7.3,8.530885,20,10,m
12119.41318,87,1,8.2,6.88237,8.009683,8,25,0,s
82.547338,85,1,9.1,7.2,8.3,8.530885,29,20,l
106.491956,85,1,9.1,7.2,8.3,8.530885,29,7,l
147.012664,89,1,8.3,6.88237,8.009683,9,22,0,m
2566.431827,60,1,9.1,7,8.8,8.530885,30,7,m
3563.092833,80,3,8.6,6.88237,7.3,6,15,0,l
1373.183158,81,1,7.2,6.6,7.2,8.530885,33,0,s
181.515762,89,1,8.3,6.88237,8.009683,9,22,15,m
2015.264494,60,1,9.1,7,8.8,8.530885,30,13,m
47.458,89,1,8.8,7.2,8.5,9,22,20,l
5.892396,85,3,7.5,6.9,7.2,9,10,8,m
480.972257,85,1,9.1,7.2,8.3,8.530885,29,8,m
101.153966,85,1,9.1,7.2,8.3,8.530885,29,6,m
126.428867,85,1,8.1,6.88237,8,8.530885,30,9,m
11815.44591,73,1,9.5,6.88237,8.5,12,33,79,s
183.05265,89,1,8.3,6.88237,8.009683,9,22,11,s
2129.64138,85,1,9,6.88237,8.5,7,22,5,s
6190.323179,80,1,7.9,6.3,7.9,6,48,0,s
11029.65537,80,1,9.5,6.88237,8.5,12,33,0,m
10508.66286,73,1,9.1,7,8.8,8.530885,30,27,s
193.416941,81,1,8.1,7.1,8.1,8.530885,18,0,m
15704.9564,85,1,8.1,6.88237,7.5,9,38,0,s
5752.167276,85,3,9.2,6.88237,8.4,10,25,12,s
515.629249,85,1,9.1,7.2,8.3,8.530885,29,5,m
11022.08376,80,1,9.5,6.88237,8.5,12,33,0,m
24.593484,50,1,7,6.88237,8.009683,8,21,5,m
96.128049,85,1,9.1,7.2,8.3,8.530885,29,9,l
120.570403,60,3,7.8,6.5,7.5,11,28,0,m
417.509066,85,1,9.1,7.2,8.3,8.530885,29,4,l
254.666867,60,1,7.8,5.7,7.2,8.530885,18,7,l
350.437943,85,1,9.1,7.2,8.3,8.530885,29,9,m
3396.429031,89,1,7.8,6.88237,7.8,8,47,0,s
4979.503298,80,1,9,6.88237,8.5,7,22,12,m
17333.04874,85,1,9.5,6.88237,8.5,12,33,67,m
351.710529,85,1,8.4,6.88237,8.5,8.530885,15,0,m
4055.786932,85,3,8.2,6.5,8.1,9,33,0,s
936.928287,86,1,5,6.88237,8.009683,8.530885,26.742663,27,s
282.202313,85,1,7.4,6.88237,7.4,8.530885,60,46,s
3954.785626,80,1,8.6,6.88237,9.1,8.530885,33,12,m
135.71609,85,1,8.1,6.88237,8,8.530885,30,7,m
8404.630085,81,1,7.6,6.5,7.6,8.530885,49,0,s
6406.090039,85,3,7.7,6,7.2,9,2,8,s
3385.579075,85,1,7.6,6.88237,7.6,8.530885,25,0,s
27.712358,50,1,7,6.88237,8.009683,8,21,7,m
46.192988,82,1,8.1,6.8,7.9,8.530885,24,13,m
427.976641,85,1,9.1,7.2,8.3,8.530885,29,7,m
129.757193,85,1,9.1,7.2,8.3,8.530885,29,6,m
313.238698,60,1,7.7,6.1,7.2,8.530885,20,0,l
665.505514,81,1,8.1,7.1,8.1,8.530885,18,10,m
12548.64196,87,1,8.2,6.88237,8.4,11,25,0,s
3629.420361,80,3,8.6,6.88237,7.3,6,15,63,l
199.708943,85,1,7.8,6.8,7.7,8,24,54,s
876.884804,89,1,8,6.7,7.9,8,39,8,s
8421.597079,60,1,9.1,7,8.8,8.530885,30,9,m
256.276434,60,1,9.1,7,8.8,8.530885,30,8,l
184.016123,85,1,7.8,6.8,7.7,8,24,113,m
78.392667,85,1,8.1,6.88237,8,8.530885,30,0,s
99.577264,85,1,9.1,7.2,8.3,8.530885,29,7,m
24.918776,60,1,8.6,7.2,8.4,8.530885,30,3,s
82.894059,85,1,9.1,7.2,8.3,8.530885,29,9,l
6018.793322,88,1,8.8,7,8,8,35,12,s
10308.51345,81,1,8.4,6.7,8.2,8,33,0,s
234.731775,85,1,8.4,6.88237,8.4,8.530885,26.742663,8,l
16895.28425,86,1,8.8,7.2,8.5,9,22,0,s
625.124044,85,1,9.1,7.2,8.3,8.530885,29,4,m
154.062061,85,1,8.3,6.9,8.1,8.530885,27,11,m
3973.825931,80,1,8,6.4,7.7,6,19,9,s
17897.98155,84,1,9.5,6.88237,8.5,12,33,0,s
49.725077,82,1,8.1,6.8,7.9,8.530885,24,25,m
6440.795697,80,1,7.5,6.88237,7.5,5,50,47,s
3977.667867,85,1,7.9,6.6,7.6,6,33,0,s
550.491204,85,1,7.8,6.8,7.7,8,24,62,s
6790.095361,88,1,8.3,7.3,8.1,9,14,0,s
195.7556,81,1,7,6.88237,8.009683,8,22,0,s
17409.79963,85,1,9.5,6.88237,8.5,12,33,8,m
2028.84106,87,1,7.8,6.3,7.6,7,33,0,s
251.310763,82,1,6.4,6.2,6.2,8.530885,32,0,s
4986.201021,80,1,9,6.88237,8.5,7,22,0,s
455.382039,87,1,7.6,6.88237,8.009683,8,33,0,s
2278.354826,60,1,9.1,7,8.8,8.530885,30,9,m
17241.60631,85,1,9.5,6.88237,8.5,12,33,0,s
2053.732833,81,1,6.8,6.4,6.8,6,33,0,s
60.575392,82,1,8.1,6.8,7.9,8.530885,24,12,l
36.345158,60,3,7.8,6.5,7.5,11,28,2,m
181.33067,89,1,8.3,6.88237,8.009683,9,22,15,s
9.40072,85,3,7.5,6.9,7.2,9,10,5,m
3581.48185,81,1,7.9,6.4,7.4,8,24,9,s
1465.178921,89,1,6.8,6.88237,8.009683,8.530885,93,9,s
3585.996668,80,3,8.6,6.88237,7.3,6,15,0,s
171.764851,85,1,9.1,7.2,8.3,8.530885,29,13,l
187.315576,81,1,8.1,7.1,8.1,8.530885,18,14,l
114.596042,81,1,6.5,6.88237,8.009683,8.530885,10,0,s
405.97535,85,1,8.4,6.88237,8.5,8.530885,15,0,s
5626.540623,80,1,7,6.88237,8.009683,8.530885,29,0,s
135.175775,85,1,9.1,7.2,8.3,8.530885,29,10,l
2413.642566,81,1,8.1,7.1,8.1,8.530885,18,5,s
15318.76934,85,1,7.9,6.88237,7.8,10,43,0,s
4964.4916,80,1,9,6.88237,8.5,7,22,9,l
266.861906,85,1,9.1,7.2,8.3,8.530885,29,8,m
3644.895028,80,1,8.6,6.88237,9.1,8.530885,33,0,l
93.457175,50,3,7.7,6.88237,7.8,9,20,0,m
3257.325028,80,1,8.3,7.3,8.1,9,14,6,s
7.03611,85,3,7.5,6.9,7.2,9,10,7,m
478.221581,82,1,7.5,6.88237,8.009683,6,41,0,s
65.724439,85,1,7.7,6.8,7.7,8,44,5,s
1421.056159,87,1,7.7,6.88237,7.3,10,51,8,s
639.916795,85,1,7.7,6.5,7.7,8,48,0,s
2143.293591,60,1,9.1,7,8.8,8.530885,30,5,l
5908.893021,88,1,8.4,6.88237,8.3,11,15,0,s
182.736434,89,1,8.3,6.88237,8.009683,9,22,13,m
215.644473,85,1,8.3,7.3,8.1,9,14,0,s
2174.734119,85,1,8.8,7,8,8,35,0,s
104.008962,85,1,9.1,7.2,8.3,8.530885,29,6,m
112.403046,89,1,8.8,7.2,8.5,9,22,0,m
446.470543,86,1,9,6.88237,8.5,7,22,0,l
98.562382,85,1,9.1,7.2,8.3,8.530885,29,7,s
27.468041,50,1,7,6.88237,8.009683,8,21,5,s
51.022654,85,3,7.5,6.9,7.2,9,10,8,l
4674.841628,60,1,9.1,7,8.8,8.530885,30,6,m
258.218802,89,1,8.3,6.88237,8.009683,9,22,10,m
12622.53128,60,1,8.3,6.88237,8.009683,9,22,8,s
178.501562,89,1,8.3,6.88237,8.009683,9,22,11,m
2588.043233,88,3,8.6,6.88237,7.3,6,15,12,s
4549.260538,81,1,7.4,6.88237,8.009683,7,55,10,s
4554.615478,60,1,9.1,7,8.8,8.530885,30,13,m
11.759642,50,1,6.6,6.88237,8.009683,7,7,3,s
2884.355342,85,1,8.8,7,8,8,35,0,s
133.641873,85,1,9.1,7.2,8.3,8.530885,29,8,l
465.868509,85,1,9.1,7.2,8.3,8.530885,29,8,m
7756.882924,88,1,8.8,7.2,8.5,9,22,2,s
1066.745315,60,1,8.3,7,8,8.530885,25,0,s
42.636065,89,1,8.3,6.88237,8.009683,9,22,8,l
525.480234,85,1,6.4,6.88237,8.009683,8.530885,11,0,s
7453.1738,87,1,8.1,7.1,8.1,8.530885,18,34,s
119.231584,85,1,9.1,7.2,8.3,8.530885,29,11,l
2263.597816,88,1,8.2,6.88237,8.009683,8,32,12,s
2725.499726,60,3,8,7.7,8,10,15,647,m
2637.522922,88,1,7.6,5.4,7.7,8.530885,30,0,s
133.107925,85,1,9.1,7.2,8.3,8.530885,29,7,m
296.978134,85,1,8.3,6.9,8.1,8.530885,27,8,s
62.910456,85,1,7.7,6.6,7.6,8,17,0,l
437.618186,85,1,6.2,5.3,6.2,8.530885,5,8,s
151.417439,82,1,8.1,6.8,7.9,8.530885,24,22,m
3486.160217,80,3,8.6,6.88237,7.3,6,15,0,m
733.841849,60,1,9.1,7,8.8,8.530885,30,8,l
134.674083,85,1,9.1,7.2,8.3,8.530885,29,7,l
118.063759,85,1,9.1,7.2,8.3,8.530885,29,9,m
10645.09725,80,1,9.5,6.88237,8.5,12,33,0,l
10146.60281,81,1,8.1,6.88237,8.009683,8.530885,48,2,s
612.107795,60,1,8.5,6.88237,8.5,9,70,10,s
5285.246839,76,3,9.2,6.88237,8.4,10,25,17,s
95.433525,89,1,8,6.7,7.9,8,39,18,m
920.051197,60,1,8.4,6.9,8.5,8.530885,34,8,s
16709.28315,85,1,9.5,6.88237,8.5,12,33,0,s
433.888825,85,1,7.5,6.88237,8.009683,5,40,11,s
3642.380891,80,3,8.6,6.88237,7.3,6,15,0,l
7030.264594,81,1,8.1,7.1,8.1,8.530885,18,0,s
303.646585,85,1,7.3,6.6,7.3,8.530885,51,0,s
7362.991221,81,3,8.6,6.88237,7.3,6,15,498,l
2027.524978,82,1,7.7,6.5,7.8,8.530885,30,0,s
586.25608,85,1,7.5,6.88237,8.009683,5,40,0,s
36.333357,60,3,7.8,6.5,7.5,11,28,0,m
46.731763,89,1,8.8,7.2,8.5,9,22,27,l
333.037996,60,1,7.8,6.5,7.3,8.530885,20,0,s
6050.731908,74,1,8.5,6.88237,8.009683,11,26.742663,165,m
6885.529987,88,3,9.2,6.88237,8.4,10,25,6,s
130.921188,85,1,9.1,7.2,8.3,8.530885,29,7,l
2738.084286,88,3,9.2,6.88237,8.4,10,25,9,m
2725.499726,85,3,9.2,6.88237,8.4,10,25,647,s
483.101997,82,1,7.2,6.88237,8.009683,5,31,0,s
9690.306643,81,1,9.1,7.2,8.3,8.530885,29,0,m
369.788045,89,1,8.8,7.2,8.5,9,22,4,m
201.416675,81,1,8.1,7.1,8.1,8.530885,18,26,l
318.575941,85,1,9.1,7.2,8.3,8.530885,29,8,m
2388.197624,88,1,7.7,6.5,7.5,8.530885,14,0,s
5000.380165,60,1,9.1,7,8.8,8.530885,30,7,m
5.60597,83,3,7.5,6.88237,8.009683,9,20,13,m
125.063088,85,1,9.1,7.2,8.3,8.530885,29,8,m
2725.499726,81,1,9.5,6.88237,8.5,12,33,647,m
13.46205,89,1,8.3,6.88237,8.009683,9,22,16,l
72.511598,60,1,7.8,6.5,7.3,8.530885,20,12,m
4521.265162,60,1,9.1,7,8.8,8.530885,30,18,m
2110.895905,88,1,8.1,6.88237,8.2,10,35,0,s
2725.499726,85,1,8.3,6.88237,8.1,8.530885,15,647,m
5531.605663,74,1,8.5,6.88237,8.009683,11,26.742663,6,m
121.267664,60,3,7.8,6.5,7.5,11,28,6,m
2623.981728,85,1,9,6.88237,8.5,7,22,0,s
9205.497067,81,1,7.9,6.6,7.9,5,33,10,s
934.438126,85,1,8.3,7.3,8.1,9,14,0,s
87.648166,85,1,9.1,7.2,8.3,8.530885,29,9,l
618.402485,85,1,7.8,6.8,7.7,8,24,41,s
260.217999,60,1,9.1,7,8.8,8.530885,30,7,l
119.027508,85,1,9.1,7.2,8.3,8.530885,29,7,l
260.296093,60,1,9.1,7,8.8,8.530885,30,7,l
280.083095,85,1,8.4,6.88237,8.5,8.530885,15,0,m
134.753017,89,1,8.3,6.88237,8.009683,9,22,12,m
7872.029873,88,1,9,6.88237,8.5,7,22,2,s
4796.412008,85,1,8.7,7.7,7.8,6,30,4,s
435.275281,85,1,7,6.88237,8.009683,8.530885,80,0,s
115.945496,85,1,9.1,7.2,8.3,8.530885,29,8,l
93.219667,85,1,7.6,6.88237,7.3,8.530885,74,91,s
30.713292,50,1,6.8,6.88237,6.8,9,33,27,s
1643.601645,60,1,8.2,6.88237,7.8,8.530885,50,13,m
260.136693,60,1,9.1,7,8.8,8.530885,30,8,l
145.722082,89,1,8.1,6.88237,7.5,9,38,10,m
10841.24812,80,1,9.5,6.88237,8.5,12,33,11,m
1462.74243,85,1,8.2,6.88237,7.8,9,30,67,s
221.871915,60,1,7.7,6.1,7.2,8.530885,20,8,m
2374.938176,88,1,7.6,6.88237,8.009683,9,15,725,s
22.678528,85,3,7.5,6.9,7.2,9,10,9,s
118.229443,60,1,9.1,7,8.8,8.530885,30,0,m
118.358031,85,1,9.1,7.2,8.3,8.530885,29,12,l
178.442395,85,1,7,5.8,7,8.530885,15,0,s
134.030771,89,1,8.2,6.88237,8.009683,8,25,8,m
189.082181,81,1,8.1,7.1,8.1,8.530885,18,7,l
2324.667439,81,1,7.6,7.2,7.6,8.530885,28,23.263212,s
20.760388,85,1,7.7,6.5,7.7,8,48,0,m
2369.744975,85,1,7.5,6.5,7.5,4,11,46,s
181.18848,85,1,7,5.8,7,8.530885,15,39,s
264.290827,85,1,8.1,6.88237,8.3,9,45,0,s
660.147444,85,1,8.3,6.88237,8.009683,10,40,0,s
260.236092,60,1,9.1,7,8.8,8.530885,30,8,l
3930.88555,80,1,8.6,6.88237,9.1,8.530885,33,0,m
1212.438844,85,1,8.2,6.88237,8.009683,6,7,4,m
181.746032,89,1,8.3,6.88237,8.009683,9,22,13,s
3231.968752,60,1,8.1,6.88237,8.009683,8.530885,48,0,s
264.903751,85,1,8.3,6.88237,8.1,8.530885,15,0,l
252.189496,85,1,7.7,6.6,7.6,8,17,0,s
6001.097997,88,1,7.8,6.88237,7.8,8.530885,25,12,s
293.869501,85,1,8.2,6.88237,8.009683,6,7,0,m
89.949737,85,1,8.3,6.88237,8.1,8.530885,15,0,m
864.236169,85,0,8.30368,4.9,8.009683,8.530885,10,34,s
321.121561,82,1,7.3,6.88237,7.3,8.530885,26.742663,0,s
8.346573,85,3,7.5,6.9,7.2,9,10,7,m
264.099374,60,1,9.1,7,8.8,8.530885,30,6,l
129.148786,85,1,9.1,7.2,8.3,8.530885,29,10,m
0,82,0,8.30368,6.88237,8.009683,8.530885,26.742663,11,m
3327.715948,81,1,8.1,7.1,8.1,8.530885,18,24,s
6374.542081,88,1,8.3,6.88237,8.009683,9,22,0,s
205.065959,85,1,9.1,7.2,8.3,8.530885,29,15,l
133.286203,85,1,9.1,7.2,8.3,8.530885,29,7,m
107.867288,85,1,7.5,6.88237,8.009683,5,40,6,s
1755.932416,60,1,9.1,7,8.8,8.530885,30,0,m
11171.07216,80,1,9.5,6.88237,8.5,12,33,0,m
42.009008,85,1,8.1,6.88237,8,8.530885,30,0,m
102.14773,85,1,9.1,7.2,8.3,8.530885,29,7,s
116.842725,85,1,9.1,7.2,8.3,8.530885,29,8,m
191.790728,89,1,8.1,6.4,7.7,9,23,8,m
320.148778,85,1,8.2,6.88237,8.009683,6,7,9,s
962.686943,85,1,7,5.8,7,8.530885,15,26,s
259.38077,86,1,7,6.88237,8.009683,8.530885,26.742663,116,m
83.774106,85,1,9.1,7.2,8.3,8.530885,29,1,m
4446.954924,80,3,9.2,6.88237,8.4,10,25,0,l
254.97599,60,1,7.8,5.7,7.2,8.530885,18,10,m
181.348668,89,1,8.3,6.88237,8.009683,9,22,15,s
17074.19018,85,1,9.5,6.88237,8.5,12,33,7,s
93.538586,85,1,9.1,7.2,8.3,8.530885,29,16,m
140.356345,85,1,7.6,6.88237,7.6,8.530885,30,0,s
478.289345,86,1,8.8,7,8,8,35,0,s
1676.335421,60,1,9.1,7,8.8,8.530885,30,8,l
10260.23533,81,1,8.3,6.88237,8.3,11,40,0,m
65.651976,85,1,7.9,6.88237,7.9,8.530885,35,23,m
50.722301,85,3,7.5,6.9,7.2,9,10,5,l
199.933377,85,1,9.1,7.2,8.3,8.530885,29,4,l
197.463039,89,1,8.3,6.88237,8.009683,9,22,15,m
4982.002216,80,1,9,6.88237,8.5,7,22,15,m
15078.44042,85,1,8.1,6.6,7.6,9,13,0,s
203.808442,89,1,8.2,6.88237,8.009683,8,25,6,m
4676.584556,88,1,8.6,6.88237,9.1,8.530885,33,5,s
260.370954,60,1,9.1,7,8.8,8.530885,30,7,l
6387.281033,88,1,7.4,6.9,7.5,8.530885,36,0,s
6221.656099,80,1,9.1,7.2,8.3,8.530885,29,13,m
3711.725911,85,1,8.7,7.7,7.8,6,30,69,s
317.200297,85,1,6.7,6.88237,6.7,8.530885,20,4,s
2203.161678,85,1,8.2,6.88237,8.3,8.530885,33,0,m
2725.499726,85,1,7.5,6.88237,8.009683,5,40,647,s
17658.01851,85,1,9.5,6.88237,8.5,12,33,0,s
16345.27704,85,1,8.1,6.6,7.6,9,13,0,s
171.365365,81,1,8.1,7.1,8.1,8.530885,18,10,m
13.007175,84,1,7.1,6.1,7.1,8.530885,32,0,m
1259.199312,85,1,7.3,6.4,7.3,8.530885,32,0,s
104.174989,85,1,7.2,6.88237,7.9,8.530885,33,0,s
119.993404,85,1,9.1,7.2,8.3,8.530885,29,11,m
259.430817,60,1,9.1,7,8.8,8.530885,30,3,l
282.777874,82,1,6.6,6,6.4,8.530885,26,0,s
31.387997,87,3,8.2,6.88237,8.6,11,60,0,l
2558.482094,60,1,9.1,7,8.8,8.530885,30,0,s
58.036151,85,1,8.3,6.9,8.1,8.530885,27,6,m
500.927576,87,1,7.8,6.8,7.6,5,15,0,s
1197.854749,86,1,9.1,7.2,8.3,8.530885,29,71,s
4136.494764,84,1,8.8,7,8,8,35,0,s
72.494064,40,1,6.8,6.88237,6.8,9,17,3,s
143.437206,85,1,7.9,6.88237,7.9,9,40,0,s
10492.34759,81,1,8.2,6.88237,8.009683,8,25,0,s
371.446509,85,1,7.8,6.8,7.7,8,24,0,s
131.704612,85,1,9.1,7.2,8.3,8.530885,29,7,s
129.986051,85,1,8.1,6.88237,8,8.530885,30,14,m
181.61997,89,1,8.3,6.88237,8.009683,9,22,15,m
209.976626,89,1,8.1,6.4,7.7,9,23,3,s
8019.739931,81,1,8.8,7,8,8,35,0,s
10905.17041,80,1,8.3,6.88237,8.009683,9,22,10,s
87.80045,85,1,9.1,7.2,8.3,8.530885,29,6,m
10595.39831,88,1,9.5,6.88237,8.5,12,33,5,m
1527.283541,88,3,9.2,6.88237,8.4,10,25,60,m
444.872684,85,1,9.1,7.2,8.3,8.530885,29,9,s
124.863476,85,1,8.1,6.88237,8,8.530885,30,0,m
10157.82983,88,1,9,6.88237,8.5,7,22,0,s
580.159402,81,1,7.8,6.5,7.7,8.530885,12,24,s
93.551064,89,1,8.3,6.88237,8.009683,9,22,15,m
13315.0929,89,1,9.1,7.2,8.3,8.530885,29,5,m
97.128725,85,1,9.1,7.2,8.3,8.530885,29,6,s
10645.09725,80,1,9.5,6.88237,8.5,12,33,0,l
194.34466,85,1,7.6,6.88237,7.3,8.530885,74,0,s
178.763929,89,1,8.3,6.88237,8.009683,9,22,9,m
258.35235,85,1,9.1,7.2,8.3,8.530885,29,7,s
218.973881,85,1,7.3,6.88237,8.009683,9,63,0,s
5583.796023,74,1,8.5,6.88237,8.009683,11,26.742663,0,m
261.88513,85,1,7.6,6.88237,7.3,8.530885,74,12,s
8676.158092,81,1,7.6,5.4,7.7,8.530885,30,0,s
176.520878,89,1,8.8,7.2,8.5,9,22,17,l
9892.273321,88,1,9.1,7.2,8.3,8.530885,29,0,s
7238.633009,81,3,8.6,6.88237,7.3,6,15,0,m
3782.591596,80,1,8.6,6.88237,9.1,8.530885,33,0,m
15689.56461,85,1,8.4,6.7,8.2,8,33,0,s
5119.841355,87,1,7.8,7.1,8,9,59,68,s
265.881567,85,1,9.1,7.2,8.3,8.530885,29,8,m
69.0881,80,1,7.9,6.88237,8.009683,10,26.742663,188,s
5392.840851,87,1,9.1,7.2,8.3,8.530885,29,0,s
4572.390052,85,1,7.9,6.88237,7.9,9,47,4,s
5743.307565,81,1,8.2,6.88237,8.009683,9,47,10,s
16968.04156,85,1,9.5,6.88237,8.5,12,33,0,m
7390.633325,81,1,8.8,7.2,8.5,9,22,15,m
181.650819,89,1,8.3,6.88237,8.009683,9,22,18,m
214.041729,81,1,8.1,7.1,8.1,8.530885,18,30,l
91.053617,82,1,7.6,6.5,7.8,8.530885,13,0,s
310.857592,85,1,7,6.3,7,7,44,0,s
143.57584,85,3,7.5,6.9,7.2,9,10,0,s
110.847217,85,1,7.4,6.88237,7.4,8.530885,33,17,s
451.333396,85,1,8.1,6.88237,8.3,9,45,0,m
50.011964,85,1,7,6.88237,8.009683,8.530885,80,0,s
7526.006325,88,1,8.3,6.5,7.8,8.530885,10,5,s
590.722254,85,1,7.5,6.88237,8.009683,5,40,88,m
6225.600482,80,1,9.1,7.2,8.3,8.530885,29,0,m
519.606873,85,1,7.7,6.88237,7.7,8.530885,30,0,s
863.223721,73,1,7.8,6.7,7.9,6,33,5,s
143.651425,89,1,8.3,6.88237,8.009683,9,22,14,m
6598.635567,88,1,8.3,6.88237,8.009683,9,22,0,s
136.241289,85,1,8.2,6.88237,8.009683,6,7,24,m
10837.59934,81,1,8.2,6.88237,8.009683,9,47,5,s
4270.854997,88,3,8.6,6.88237,7.3,6,15,5,s
262.523764,85,1,8.4,6.88237,8.5,8.530885,15,0,s
1280.182013,82,1,7.6,6.88237,8.009683,8.530885,23,0,s
100.931523,85,1,9.1,7.2,8.3,8.530885,29,7,m
117.102625,88,1,7.6,5.4,7.7,8.530885,30,5,l
9497.344461,88,1,8.1,6.88237,8.009683,9,19,0,s
163.240196,50,3,7.7,6.88237,7.8,9,20,6,m
129.850316,60,1,8.4,6.9,8.5,8.530885,34,9,m
48.525798,83,3,7.5,6.88237,8.009683,9,20,5,m
70.268782,89,1,8.8,7.2,8.5,9,22,9,m
54.917891,89,1,8,6.7,7.9,8,39,15,m
649.786501,85,1,7.1,6.88237,7,8.530885,48,5,s
722.05121,86,1,9.1,7.2,8.3,8.530885,29,11,m
3264.807887,80,1,8.3,6.5,7.8,8.530885,10,6,s
345.220182,85,1,9.1,7.2,8.3,8.530885,29,6,l
204.931537,82,1,6.7,6.88237,8.009683,8.530885,16,0,s
238.620576,82,1,7.1,6.88237,8.009683,2,21,0,s
204.565751,85,1,7.4,6.6,7.4,10,66,100,s
47.384359,74,1,7.3,6.88237,8.009683,10,33,50,s
2234.463265,85,1,9,6.88237,8.5,7,22,12,s
284.489077,85,1,9.1,7.2,8.3,8.530885,29,11,l
286.908075,85,1,8.4,6.88237,8.5,8.530885,15,69,s
268.599405,85,1,7,6.88237,8.009683,8.530885,60,0,s
76.713994,85,1,8.2,6.88237,8.2,8.530885,26.742663,16,l
1642.934316,60,1,9.1,7,8.8,8.530885,30,10,s
261.763985,89,1,8.8,7.2,8.5,9,22,11,l
2493.932626,85,1,7.8,7.1,8,9,59,67,s
41.016187,85,1,7.5,6.88237,8.009683,5,40,55,s
959.154904,85,1,7.4,6.6,7.4,10,66,34,s
239.354429,85,1,9.1,7.2,8.3,8.530885,29,13,l
4447.082823,60,1,9.1,7,8.8,8.530885,30,7,m
863.873977,85,1,9.1,7.2,8.3,8.530885,29,6,s
522.59714,89,1,8.3,6.88237,8.3,11,40,0,m
8412.206726,87,1,8,7.2,7.8,7,55,0,s
17006.97201,85,1,9.5,6.88237,8.5,12,33,0,m
6462.135707,88,1,8.3,6.9,8.1,8.530885,27,0,s
6271.622906,85,1,7.7,6.4,7.9,8.530885,33,0,s
561.195454,86,1,7,5.8,7,8.530885,15,29,s
12.433359,50,1,7,6.88237,8.009683,8,21,5,m
5140.849317,80,3,6.4,6.88237,6.8,8.530885,33,0,s
290.826423,60,1,7.7,6.1,7.2,8.530885,20,6,l
1128.398912,87,1,7.5,6.4,7.3,8.530885,71,68,s
18040.45705,85,1,8.3,6.88237,8.009683,9,22,87,s
38.393401,89,1,8.8,7.2,8.5,9,22,23,l
3975.407919,85,3,8.2,6.5,8.1,9,33,7,s
124.804542,82,1,7,6.5,6.9,8.530885,23,0,s
1121.553781,86,1,8.5,7.7,8.1,9,13,12,s
183.041553,89,1,8.3,6.88237,8.009683,9,22,8,s
93.19338,85,1,9.1,7.2,8.3,8.530885,29,7,s
1154.511386,85,1,7.1,6.88237,8.009683,8.530885,25,0,s
202.352206,85,1,7.8,6.8,7.7,8,24,0,m
79.282767,60,1,7.8,6.5,7.3,8.530885,20,7,m
51.754304,60,1,7.8,6.5,7.3,8.530885,20,17,m
463.21183,85,1,9.1,7.2,8.3,8.530885,29,5,m
260.466008,60,1,9.1,7,8.8,8.530885,30,9,l
184.560959,85,1,9.1,7.2,8.3,8.530885,29,8,l
4590.20652,60,1,9.1,7,8.8,8.530885,30,6,m
14.884837,85,3,7.5,6.9,7.2,9,10,5,m
5281.505536,80,1,7.2,7.2,7.2,4,65,0,s
29.22972,83,1,7.9,6.3,7.6,6,24,12,m
627.513665,85,1,7.4,6.88237,7.4,8.530885,60,0,s
233.089945,89,1,8.3,6.88237,8.009683,9,22,0,m
228.174407,85,1,9.1,7.2,8.3,8.530885,29,11,m
2.364805,81,1,8.30368,6.88237,8.009683,8.530885,26.742663,0,s
124.945627,89,1,7.5,5.8,6.6,4,10,12,m
181.65668,89,1,8.3,6.88237,8.009683,9,22,15,l
59.273051,81,1,6.5,6.1,6.7,8.530885,17,3,s
4604.559196,80,3,9.2,6.88237,8.4,10,25,32,s
4451.745009,60,1,9.1,7,8.8,8.530885,30,7,m
801.345344,81,1,8.1,7.1,8.1,8.530885,18,23.263212,s
3932.047714,85,1,7.9,6.6,7.6,6,33,0,s
7386.519187,81,1,8.8,7.2,8.5,9,22,10,s
143.316441,85,1,8.2,6.88237,8.009683,6,7,0,m
285.271771,85,1,8.1,6.88237,8.3,9,45,0,m
165.431394,81,1,8.1,7.1,8.1,8.530885,18,0,m
583.974569,86,1,8.2,6.88237,8.009683,6,7,8,s
118.313911,85,1,9.1,7.2,8.3,8.530885,29,7,l
175.806268,85,1,9.1,7.2,8.3,8.530885,29,12,m
155.148529,82,1,6.5,6.1,6.4,8.530885,24,0,s
69.349479,83,3,7.5,6.88237,8.009683,9,20,12,s
3576.715666,81,1,8.1,6.8,7.9,8.530885,24,0,s
742.21677,85,1,9.1,7.2,8.3,8.530885,29,9,s
11185.62306,80,1,9.5,6.88237,8.5,12,33,0,m
358.913077,87,1,7.8,6.2,7.2,8.530885,33,68,s
260.370017,60,1,9.1,7,8.8,8.530885,30,9,l
5068.389437,85,3,9.2,6.88237,8.4,10,25,0,s
10316.17475,81,1,8.3,6.88237,8.3,11,40,8,m
201.41116,81,1,8.1,7.1,8.1,8.530885,18,17,l
17866.82751,85,1,8.3,6.88237,8.009683,9,22,9,s
195.335976,81,1,8.1,7.1,8.1,8.530885,18,24,m
3568.522154,80,1,8.6,6.88237,9.1,8.530885,33,44,m
2552.397503,60,1,9.1,7,8.8,8.530885,30,7,m
97.582674,85,1,9.1,7.2,8.3,8.530885,29,0,l
182.821039,89,1,8.3,6.88237,8.009683,9,22,15,m
93.031562,85,1,9.1,7.2,8.3,8.530885,29,5,l
16950.52497,85,1,8.3,6.88237,8.009683,9,22,5,s
3939.361016,85,3,8.2,6.5,8.1,9,33,8,s
3846.641385,80,3,8.6,6.88237,7.3,6,15,26,l
282.099066,82,1,7.7,6.5,7.8,8.530885,30,17,s
2512.639109,88,1,7.7,6.5,7.5,8.530885,14,0,s
2297.833759,85,1,9,6.88237,8.5,7,22,7,s
1850.97629,81,1,8.1,6.88237,8.009683,9,19,0,s
152.010716,85,1,8.3,6.88237,8.1,8.530885,15,0,m
185.327005,85,1,8.2,6.88237,8.009683,6,7,0,m
296.526623,82,1,7.9,6.3,7.9,6,48,0,s
17981.16553,84,1,9.5,6.88237,8.5,12,33,0,s
183.229724,89,1,8.3,6.88237,8.009683,9,22,11,s
67.651197,89,1,8,6.7,7.9,8,39,0,m
573.829376,87,1,7.3,6.9,8.009683,8.530885,52,12,s
16036.28283,85,1,7.9,6.88237,7.8,10,43,0,s
7138.765345,81,1,9.1,7,8.8,8.530885,30,0,s
115.724511,85,1,9.1,7.2,8.3,8.530885,29,6,m
65.257812,83,3,7.5,6.88237,8.009683,9,20,14,l
169.486299,85,1,8.2,6.88237,8.009683,6,7,32,m
4987.744663,81,1,7.8,6.1,7.8,10,33,18,s
134.3639,85,1,9.1,7.2,8.3,8.530885,29,8,m
49.895681,83,3,7.5,6.88237,8.009683,9,20,14,m
2725.499726,85,5,6.4,6.88237,6.4,8.530885,26.742663,647,l
744.953147,60,1,7.5,6.9,7.6,8.530885,5,23.263212,s
5401.249199,60,1,9.1,7,8.8,8.530885,30,0,m
128.310213,85,1,9.1,7.2,8.3,8.530885,29,7,l
80.76672,85,1,8.3,6.88237,8.1,8.530885,15,15,m
73.183808,85,1,7.7,6.6,7.6,8,17,137,l
11995.2245,87,1,8.8,7.2,8.5,9,22,0,s
8010.792272,88,1,8.2,6.88237,8.009683,6,7,5,s
266.990024,85,1,9.1,7.2,8.3,8.530885,29,10,l
3954.943535,80,1,8.6,6.88237,9.1,8.530885,33,79,m
690.090748,81,1,7.4,6.88237,8.009683,8.530885,10,0,s
3752.102271,80,1,8,6.4,7.7,6,19,0,s
115.799302,85,1,9.1,7.2,8.3,8.530885,29,7,l
124.635157,85,1,9.1,7.2,8.3,8.530885,29,10,l
1809.765653,60,1,9.1,7,8.8,8.530885,30,11,l
2552.393964,60,1,9.1,7,8.8,8.530885,30,6,m
10003.58336,81,1,8.3,6.88237,8.009683,9,22,3,s
208.778671,85,1,9.1,7.2,8.3,8.530885,29,25,l
9544.29003,81,1,9.1,7.2,8.3,8.530885,29,24,m
491.706689,85,1,9.1,7.2,8.3,8.530885,29,7,m
7565.412259,82,1,8.8,7,8,8,35,0,s
194.802063,85,1,9.1,7.2,8.3,8.530885,29,12,l
86.267966,85,1,6.4,5.9,6.1,8.530885,22,0,s
289.166097,85,1,8.4,6.88237,8.5,8.530885,15,5,s
263.232639,85,1,7.4,6.2,7.1,8.530885,10,46,s
655.109102,85,1,9.1,7.2,8.3,8.530885,29,15,s
16981.28423,85,1,9.5,6.88237,8.5,12,33,0,m
16866.04436,85,1,8.3,6.88237,8.009683,9,22,0,s
240.926895,85,1,9.1,7.2,8.3,8.530885,29,9,l
2517.863505,60,1,9.1,7,8.8,8.530885,30,6,m
258.161105,85,1,9.1,7.2,8.3,8.530885,29,6,m
395.184079,85,1,7,6.88237,8.009683,8.530885,40,0,s
347.695104,89,1,8.3,6.88237,8.009683,9,22,14,m
134.352073,85,1,9.1,7.2,8.3,8.530885,29,6,l
867.920515,88,1,7.5,6.2,7.5,8.530885,43,0,s
4723.529062,60,1,9.1,7,8.8,8.530885,30,4,m
62.465516,89,1,8,6.7,7.9,8,39,16,m
43.812672,60,1,7.8,6.5,7.3,8.530885,20,7,l
94.161005,85,1,9.1,7.2,8.3,8.530885,29,6,l
218.358306,82,1,7,6.88237,8.009683,4,10,0,s
1194.72609,85,1,7.7,6.5,7.7,8,48,10,s
106.661062,85,1,9.1,7.2,8.3,8.530885,29,15,l
4521.07957,60,1,9.1,7,8.8,8.530885,30,6,s
2141.658449,60,1,9.1,7,8.8,8.530885,30,6,l
138.279552,50,3,7.7,6.88237,7.8,9,20,7,m
16999.45125,85,1,9.5,6.88237,8.5,12,33,8,m
93.682118,85,1,9.1,7.2,8.3,8.530885,29,9,l
653.447618,85,1,7.5,6.88237,7.5,7,30,6,s
1797.557951,81,3,8.2,6.5,8.1,9,33,18,s
70.318122,60,3,7.8,6.5,7.5,11,28,6,m
256.879974,85,1,9.1,7.2,8.3,8.530885,29,10,l
40.988389,60,1,7.8,6.5,7.3,8.530885,20,9,l
11871.77237,89,1,8.8,7,8,8,35,0,s
10612.15128,80,1,9.5,6.88237,8.5,12,33,26,m
1988.341239,60,1,8.6,7.2,8.4,8.530885,30,12,s
4732.790796,60,1,9.1,7,8.8,8.530885,30,6,m
124.866072,88,1,7.5,6.88237,7.1,8,65,6,s
184.015574,89,1,8.3,6.88237,8.009683,9,22,5,s
728.109317,88,1,8,6.6,7.4,8.530885,33,0,s
2725.499726,85,1,6.9,6.88237,6.9,8.530885,30,647,s
7326.48836,77,1,8.1,6.88237,8.009683,8.530885,48,0,s
8506.591253,81,1,9.5,6.88237,8.5,12,33,23.263212,s
326.794589,85,1,7.7,6.6,7.6,8,17,0,s
8645.00686,88,1,9.1,7.2,8.3,8.530885,29,8,s
845.376782,85,1,9.1,7.2,8.3,8.530885,29,18,s
9591.317212,88,1,7.8,6.88237,7.9,8.530885,35,0,s
3482.839446,80,3,8.6,6.88237,7.3,6,15,0,l
5141.988544,81,1,9.1,7.2,8.3,8.530885,29,0,s
1468.518595,81,1,8.1,6.88237,8.009683,9,19,7,s
10830.30233,80,1,9.5,6.88237,8.5,12,33,0,m
21.45217,82,1,8.1,6.8,7.9,8.530885,24,5,s
1190.685473,85,1,7.1,6.4,6.9,8.530885,28,0,s
38.721738,60,1,7.8,6.5,7.3,8.530885,20,12,s
325.772339,85,1,7.5,6.88237,7.5,7,30,10,s
131.774822,85,1,9.1,7.2,8.3,8.530885,29,7,l
16993.44222,85,1,9.5,6.88237,8.5,12,33,35,l
211.930723,85,1,9.1,7.2,8.3,8.530885,29,5,l
10967.32179,80,1,9.5,6.88237,8.5,12,33,0,m
239.125222,85,1,9.1,7.2,8.3,8.530885,29,8,m
7378.747389,81,3,8.6,6.88237,7.3,6,15,17,m
1276.976634,85,1,9.1,7.2,8.3,8.530885,29,44,s
133.298075,83,3,8.2,6.5,8.1,9,33,0,m
146.648853,85,1,8.2,6.88237,8.009683,6,7,27,l
52.580323,83,3,7.5,6.88237,8.009683,9,20,16,l
544.91689,88,1,7.7,6.88237,7.7,8.530885,60,129,s
7986.893282,80,1,7.7,6.88237,7.7,8.530885,60,47,s
16660.03304,85,1,8.8,7.2,8.5,9,22,0,s
2019.214466,60,1,9.1,7,8.8,8.530885,30,6,m
18331.57693,84,1,8.8,7.2,8.5,9,22,23,s
820.474093,85,1,7.4,6.6,7.4,10,66,49,s
406.408408,85,1,7.9,6.6,7.9,5,33,15,s
789.192815,85,1,8.2,6.88237,7.8,9,30,45,s
379.647546,85,1,6.9,6.4,6.9,8.530885,33,0,s
8094.011923,81,1,9.1,7,8.8,8.530885,30,0,s
484.894929,85,1,9.1,7.2,8.3,8.530885,29,6,m
136.284987,85,1,8.3,6.9,8.1,8.530885,27,0,m
17364.6847,85,1,9.5,6.88237,8.5,12,33,0,m
8680.449928,88,1,8.2,6.88237,8.4,11,25,5,s
8733.301261,81,1,9.5,6.88237,8.5,12,33,35,m
17297.45984,85,1,8.4,6.7,8.2,8,33,4,s
74.533057,83,3,8.2,6.5,8.1,9,33,0,m
893.631355,60,1,8.6,7.4,8.5,8.530885,20,0,s
5835.414469,80,1,8.3,6.88237,7.6,8.530885,26.742663,39,s
180.387551,60,1,8.6,7.2,8.4,8.530885,30,9,m
92.78135,85,1,9.1,7.2,8.3,8.530885,29,16,m
5301.153758,60,1,8.4,6.9,8.5,8.530885,34,48,s
260.495002,60,1,9.1,7,8.8,8.530885,30,9,m
493.896693,85,1,9.1,7.2,8.3,8.530885,29,0,s
1641.545065,60,1,9.1,7,8.8,8.530885,30,12,l
198.32582,85,1,9.1,7.2,8.3,8.530885,29,4,l
370.289871,85,1,7.6,6.88237,7.6,8.530885,30,0,s
16534.28214,85,1,8,6.6,7.3,7,46,0,s
324.022411,85,1,9.1,7.2,8.3,8.530885,29,7,m
32.963372,85,5,6.4,6.88237,6.4,8.530885,26.742663,8,m
8996.022494,88,1,8.3,6.88237,8.009683,9,22,33,s
1769.0235,60,1,9.1,7,8.8,8.530885,30,0,m
181.836751,89,1,8.3,6.88237,8.009683,9,22,0,m
96.634988,85,1,9.1,7.2,8.3,8.530885,29,10,m
88.680594,85,1,9.1,7.2,8.3,8.530885,29,9,m
184.155323,81,1,8.1,7.1,8.1,8.530885,18,23,l
183.890189,89,1,8.3,6.88237,8.009683,9,22,5,s
151.010366,85,1,8.3,6.88237,8.1,8.530885,15,17,l
6355.3742,82,1,9,6.88237,8.5,7,22,7,s
17593.43632,85,1,9.5,6.88237,8.5,12,33,0,s
12.040737,89,1,8.3,6.88237,8.009683,9,22,13,m
137.968192,85,1,8.2,6.88237,8.009683,6,7,41,m
10844.23328,80,1,9.5,6.88237,8.5,12,33,0,m
135.708116,85,1,9.1,7.2,8.3,8.530885,29,8,l
531.574495,85,1,9.1,7.2,8.3,8.530885,29,6,l
288.432273,85,1,9.1,7.2,8.3,8.530885,29,10,l
217.253353,85,1,9.1,7.2,8.3,8.530885,29,9,l
106.252392,85,1,9.1,7.2,8.3,8.530885,29,7,l
3369.618781,60,1,8.4,6.9,8.5,8.530885,34,0,s
309.129538,85,1,8.2,6.88237,8.009683,6,7,79,m
653.969133,81,1,8.1,7.1,8.1,8.530885,18,6,m
131.500169,89,1,8.2,6.88237,8.009683,8,25,9,m
33.741496,89,1,8.8,7.2,8.5,9,22,10,l
2551.118039,60,1,9.1,7,8.8,8.530885,30,9,m
261.938687,60,1,9.1,7,8.8,8.530885,30,7,l
33.197453,82,1,7,6.88237,7.3,8.530885,13,344,l
92.535569,89,1,8.2,6.88237,8.009683,8,25,0,m
6714.268729,85,3,7.7,6,7.2,9,2,0,s
983.656031,85,1,9.1,7.2,8.3,8.530885,29,7,m
257.796967,85,1,8.2,6.88237,8.009683,6,7,14,s
3495.733071,85,1,7.3,6.88237,7.3,8.530885,36,19,s
34.218139,50,1,6.8,6.88237,8.009683,8,14,12,m
3803.650063,80,3,8.6,6.88237,7.3,6,15,0,m
654.590719,81,1,8.1,7.1,8.1,8.530885,18,34,m
10619.65856,60,1,8.1,6.88237,8.009683,8.530885,48,0,s
97.182581,85,1,9.1,7.2,8.3,8.530885,29,7,l
75.429217,88,1,7.7,6.5,7.5,8.530885,14,22,m
189.271862,85,1,7.2,6,7.2,8.530885,44,7,s
78.158263,85,1,9.1,7.2,8.3,8.530885,29,19,l
268.060514,89,1,8.8,7.2,8.5,9,22,0,l
10645.09725,80,1,9.5,6.88237,8.5,12,33,0,l
125.095069,85,1,9.1,7.2,8.3,8.530885,29,9,m
190.515181,85,1,7.4,6.2,7.1,8.530885,10,0,s
2516.471651,60,1,9.1,7,8.8,8.530885,30,3,s
122.435543,81,1,6.9,6.88237,7.2,8.530885,12,8,l
97.334418,85,1,9.1,7.2,8.3,8.530885,29,7,l
6624.702141,81,1,9.1,7,8.8,8.530885,30,9,s
6361.18452,60,1,9.1,7,8.8,8.530885,30,14,m
463.871115,85,1,7.7,6.5,7.7,8,48,8,s
5213.44922,60,1,7.8,6.5,7.3,8.530885,20,0,s
3922.904248,80,1,8.6,6.88237,9.1,8.530885,33,12,m
1254.502689,88,1,7.9,6.88237,8.009683,4,14,6,s
9640.246676,89,1,8.1,7.1,8.1,8.530885,18,0,s
27.848031,50,1,7,6.88237,8.009683,8,21,9,s
815.104511,85,1,8.2,6.88237,8.009683,6,7,0,s
639.779579,85,1,9.1,7.2,8.3,8.530885,29,6,s
521.820129,85,1,9.1,7.2,8.3,8.530885,29,8,l
4546.239499,60,1,9.1,7,8.8,8.530885,30,0,s
98.591883,85,1,9.1,7.2,8.3,8.530885,29,15,l
17298.35175,85,1,9.5,6.88237,8.5,12,33,11,m
255.667799,85,1,9.1,7.2,8.3,8.530885,29,7,l
3881.372627,80,1,9.1,7.2,8.3,8.530885,29,0,m
120.659919,85,1,9.1,7.2,8.3,8.530885,29,8,l
204.70867,85,1,7.7,6.88237,7.7,8.530885,26.742663,9,m
16991.26969,85,1,9.5,6.88237,8.5,12,33,0,m
1584.552842,87,1,8.1,7.3,8.2,8.530885,10,68,s
1778.576481,87,3,8.6,6.88237,7.3,6,15,5,s
63.226265,89,1,8.3,6.88237,8.3,11,40,117,l
3880.994862,80,1,8.6,6.88237,9.1,8.530885,33,97,l
20.535168,83,1,7,6.88237,7.4,8,15,15,s
255.750251,85,1,8.4,6.88237,8.5,8.530885,15,0,l
208.370209,81,1,8.1,7.1,8.1,8.530885,18,31,l
269.77778,60,1,7.8,5.7,7.2,8.530885,18,26,m
7498.748402,88,1,9.1,7.2,8.3,8.530885,29,23.263212,s
69.571256,82,1,8.1,6.8,7.9,8.530885,24,0,s
7357.953623,81,3,8.6,6.88237,7.3,6,15,0,l
11165.39369,80,1,9.5,6.88237,8.5,12,33,11,m
114.86845,85,1,9.1,7.2,8.3,8.530885,29,11,m
9421.180051,89,1,7.6,7,7.6,8.530885,34,15,s
295.243807,60,1,9.1,7,8.8,8.530885,30,10,m
258.772624,85,1,9.1,7.2,8.3,8.530885,29,8,m
2125.19469,60,1,9.1,7,8.8,8.530885,30,10,m
181.629296,89,1,8.3,6.88237,8.009683,9,22,16,m
13.280126,85,3,7.5,6.9,7.2,9,10,8,m
405.134116,85,1,9.1,7.2,8.3,8.530885,29,0,m
15119.36188,71,1,9.1,7,8.8,8.530885,30,0,s
328.550515,84,3,3.7,6.88237,3.7,8.530885,8,0,s
24.578647,50,1,7,6.88237,8.009683,8,21,5,m
2013.395721,85,1,9,6.88237,8.5,7,22,8,s
983.462769,85,1,9.1,7.2,8.3,8.530885,29,10,m
227.795745,85,1,8.1,6.88237,8.1,8.530885,26.742663,0,l
106.893341,85,1,9.1,7.2,8.3,8.530885,29,14,l
5931.1044,80,1,9.1,7.2,8.3,8.530885,29,0,m
15311.13101,89,1,8.8,7,8,8,35,4,s
17090.12753,85,1,9.5,6.88237,8.5,12,33,5,m
150.885856,85,1,8.3,6.88237,8.1,8.530885,15,7,l
141.634935,85,1,8.3,6.88237,8.1,8.530885,15,0,m
130.047636,85,1,9.1,7.2,8.3,8.530885,29,8,m
273.00305,85,1,9.1,7.2,8.3,8.530885,29,9,l
37.050855,88,1,7.7,6.5,7.5,8.530885,14,18,l
95.325144,85,1,8.2,6.88237,8.2,8.530885,26.742663,0,l
750.270442,82,1,7.5,6.88237,8.009683,8.530885,10,0,s
1958.452907,60,1,9.1,7,8.8,8.530885,30,9,s
221.109653,87,3,8.1,6.88237,8.1,8.530885,25,0,s
3898.980103,88,3,8.6,6.88237,7.3,6,15,24,s
2186.03008,87,1,7.4,6.9,7.5,8.530885,36,23.263212,s
6442.411905,88,1,8.3,7.3,8.1,9,14,0,s
68.343128,89,1,8.8,7.2,8.5,9,22,16,l
227.732243,85,1,8.4,6.88237,8.5,8.530885,15,0,m
1780.232293,60,1,9.1,7,8.8,8.530885,30,4,m
92.625299,85,3,7.5,6.9,7.2,9,10,8,l
18.337282,85,1,7.1,6.88237,8.009683,8.530885,25,0,s
3659.348788,80,1,8.6,6.88237,9.1,8.530885,33,9,m
170.651137,88,3,7.5,6.4,7.7,8.530885,10,20,s
543.61894,85,1,9.1,7.2,8.3,8.530885,29,0,s
61.94677,50,3,7,6.88237,7.2,11,40,60,l
229.626766,60,1,7.7,6.1,7.2,8.530885,20,10,l
6306.725709,80,1,9.1,7.2,8.3,8.530885,29,9,m
45.904246,89,1,8.8,7.2,8.5,9,22,14,l
146.305744,85,1,9.1,7.2,8.3,8.530885,29,10,l
54.800718,82,1,8.1,6.8,7.9,8.530885,24,17,m
2437.230455,81,1,7.3,6.88237,7.3,8.530885,36,18,s
14566.60596,85,1,8.1,6.4,7.7,9,23,0,s
224.491254,83,3,8.2,6.5,8.1,9,33,12,l
123.398113,85,1,9.1,7.2,8.3,8.530885,29,8,m
262.227949,60,1,9.1,7,8.8,8.530885,30,0,l
12304.26053,87,1,8.4,6.7,8.2,8,33,8,s
124.631927,85,1,9.1,7.2,8.3,8.530885,29,9,m
312.82843,85,1,7.1,6.4,6.9,8.530885,28,12,s
206.556827,60,1,8.4,6.9,8.5,8.530885,34,10,m
98.378829,86,1,8.3,6.5,7.8,8.530885,10,0,l
13457.41214,89,1,8.3,6.88237,8.009683,10,40,7,s
9703.838359,81,1,9.1,7.2,8.3,8.530885,29,0,m
9093.002962,88,1,8,6.6,7.3,7,46,0,s
4120.116606,88,3,8.6,6.88237,7.3,6,15,0,s
7799.935456,82,1,7.9,6.6,7.6,6,33,0,s
222.332796,60,1,7.7,6.1,7.2,8.530885,20,8,m
126.811977,85,1,9.1,7.2,8.3,8.530885,29,9,l
5.014422,50,1,6.3,6.88237,8.009683,9,12,9,s
196.774033,88,1,7.6,6.88237,8.009683,9,15,0,s
3564.72344,88,1,7.9,6.88237,8.009683,6,109,12,s
141.013479,89,1,8.3,6.88237,8.009683,9,22,13,l
846.203902,85,1,9.1,7.2,8.3,8.530885,29,9,s
200.424557,85,1,8.3,6.9,8.1,8.530885,27,9,m
1786.683754,60,1,9.1,7,8.8,8.530885,30,8,m
84.146863,85,1,8.3,6.88237,8.1,8.530885,15,5,m
94.634933,81,1,6.5,6.1,6.7,8.530885,17,0,s
127.010313,60,1,7.8,6.5,7.3,8.530885,20,8,l
3587.080122,80,3,8.6,6.88237,7.3,6,15,0,l
5194.147067,88,1,8.8,7,8,8,35,0,s
57.983351,85,1,8.3,6.9,8.1,8.530885,27,4,m
126.042019,85,1,8.1,6.88237,8.3,9,45,4,m
15.538762,84,1,7.1,6.1,7.1,8.530885,32,0,m
2335.259018,85,1,7.6,6.4,7.6,6,50,0,s
1828.585439,60,1,9.1,7,8.8,8.530885,30,9,s
69.629386,83,3,7.5,6.88237,8.009683,9,20,0,m
242.40404,85,1,9.1,7.2,8.3,8.530885,29,9,l
580.093704,85,1,7.8,6.8,7.7,8,24,0,s
134.515276,85,1,9.1,7.2,8.3,8.530885,29,10,l
3738.779681,80,3,8.6,6.88237,7.3,6,15,0,l
5685.939041,81,1,8.2,6.88237,8.009683,9,47,0,s
135.647148,85,1,9.1,7.2,8.3,8.530885,29,5,l
102.324712,80,1,6.9,6.88237,8.009683,8.530885,60,11,s
182.228115,89,1,8.3,6.88237,8.009683,9,22,10,m
40.499823,88,1,7.4,6.88237,8.009683,8.530885,26,7,s
995.194713,87,3,9.2,6.88237,8.4,10,25,7,s
7358.104904,81,3,8.6,6.88237,7.3,6,15,0,l
181.273994,89,1,8.3,6.88237,8.009683,9,22,17,s
36.124609,89,1,8,6.6,7.3,7,46,10,m
2364.902254,60,1,9.1,7,8.8,8.530885,30,6,s
181.901295,89,1,8.3,6.88237,8.009683,9,22,15,l
14407.94992,85,1,8.1,6.4,7.7,9,23,0,s
10568.94144,81,1,9.5,6.88237,8.5,12,33,4,s
201.972995,81,1,8.1,7.1,8.1,8.530885,18,16,m
16744.0905,85,1,9.5,6.88237,8.5,12,33,3,m
88.487891,85,1,9.1,7.2,8.3,8.530885,29,5,l
69.759731,85,1,7.4,6.4,7.4,6,29,0,s
219.50541,85,1,7.7,6.6,7.6,8,17,45,s
496.437137,85,1,9.1,7.2,8.3,8.530885,29,5,m
201.582333,81,1,8.1,7.1,8.1,8.530885,18,18,l
2530.468558,89,1,8.4,6.7,8.2,8,33,15,s
8290.360661,88,1,8.2,6.88237,8.009683,6,7,0,s
183.095979,89,1,8.3,6.88237,8.009683,9,22,13,s
50.731833,85,3,7.5,6.9,7.2,9,10,5,l
976.505309,85,1,6.1,6.88237,8.009683,8.530885,10,340,s
240.743481,60,1,7.8,5.7,7.2,8.530885,18,7,l
3688.451867,80,1,8.6,6.88237,9.1,8.530885,33,9,m
146.402144,89,1,8.8,7.2,8.5,9,22,25,m
7462.898897,87,1,7.6,6.4,7.3,8.530885,45,0,s
1215.975863,89,1,7.8,6.88237,7.8,8,47,0,s
109.597191,85,1,6.4,5.8,6.6,8.530885,33,8,s
18440.08638,85,1,8,6.6,7.3,7,46,24,s
96.17634,85,1,9.1,7.2,8.3,8.530885,29,12,m
254.983953,60,1,9.1,7,8.8,8.530885,30,15,l
462.746243,85,1,9.1,7.2,8.3,8.530885,29,8,s
69.171713,83,3,7.5,6.88237,8.009683,9,20,12,s
267.837371,60,1,9.1,7,8.8,8.530885,30,9,l
1861.609,60,1,7.7,6.6,7.6,6,10,6,s
2034.886471,82,1,7.6,7,7.8,8.530885,17,0,s
216.449758,85,1,9.1,7.2,8.3,8.530885,29,7,l
5399.205864,80,1,7.9,6.4,7.4,8,24,0,s
7.03611,85,3,7.5,6.9,7.2,9,10,7,m
10228.26662,89,1,7.6,7,7.8,8.530885,17,0,s
563.213248,60,1,9.1,7,8.8,8.530885,30,48,m
10.652618,50,1,6.6,6.88237,8.009683,7,7,5,s
6225.997362,80,1,9.1,7.2,8.3,8.530885,29,0,m
171.57202,81,1,8.1,7.1,8.1,8.530885,18,0,m
865.752422,85,0,8.30368,4.9,8.009683,8.530885,10,0,s
259.329522,85,1,6.9,6.88237,6.9,8.530885,30,7,s
150.076089,85,1,7.1,6.88237,7,8.530885,48,460,s
136.728192,86,1,8.3,7.3,8.1,9,14,73,m
234.016455,85,1,9.1,7.2,8.3,8.530885,29,0,l
3642.934208,80,1,8.6,6.88237,9.1,8.530885,33,0,l
92.103625,89,1,7.2,6.88237,8.009683,8.530885,28,0,s
91.054586,85,1,9.1,7.2,8.3,8.530885,29,8,l
181.759062,89,1,8.3,6.88237,8.009683,9,22,15,m
285.201072,85,1,7.7,6.88237,7.7,8.530885,26.742663,7,s
17746.1802,85,1,8.3,6.88237,8.009683,9,22,0,s
4324.994927,82,1,7.6,6.6,7.5,8.530885,17,0,s
11004.33233,80,1,9.5,6.88237,8.5,12,33,10,m
6373.704341,83,1,8.8,7,8,8,35,0,s
25.807782,85,1,6.9,6.4,6.7,10,44,57,s
6570.931153,82,1,8.8,7,8,8,35,0,s
2237.683744,88,3,9.2,6.88237,8.4,10,25,9,s
108.071297,60,1,9.1,7,8.8,8.530885,30,12,m
2065.502058,84,1,9.1,7.2,8.3,8.530885,29,8,s
0,85,1,6.4,6.88237,8.009683,8.530885,20,23.263212,s
6221.676511,80,1,9.1,7.2,8.3,8.530885,29,14,m
3943.583684,80,1,8.6,6.88237,9.1,8.530885,33,31,m
12511.0043,82,1,9.5,6.88237,8.5,12,33,44,m
154.549762,89,1,8.1,6.88237,7.5,9,38,0,m
9412.696991,88,1,8.1,6.88237,8.009683,9,19,0,s
96.767065,85,1,9.1,7.2,8.3,8.530885,29,11,m
99.088906,85,1,9.1,7.2,8.3,8.530885,29,5,l
10083.47324,80,1,8.5,6.88237,8.5,11,25,0,m
129.597978,85,1,9.1,7.2,8.3,8.530885,29,7,m
5039.3493,60,1,9.1,7,8.8,8.530885,30,13,l
30.737126,50,1,7,6.88237,8.009683,8,21,7,s
17840.56327,85,1,8.3,6.88237,8.009683,9,22,7,s
5.540792,84,1,5.5,6.88237,5.5,7,26.742663,308,m
625.066614,60,1,8.6,7.4,8.5,8.530885,20,0,s
3073.168541,85,1,8,6.4,7.9,6,33,0,s
17069.83607,85,1,9.5,6.88237,8.5,12,33,30,s
141.187743,89,1,8.8,7.2,8.5,9,22,17,l
5978.148903,85,3,9.2,6.88237,8.4,10,25,8,s
14903.83448,89,1,8.8,7,8,8,35,0,s
83.242629,85,1,8.1,6.88237,8,8.530885,30,0,l
92.666839,85,1,9.1,7.2,8.3,8.530885,29,9,l
2311.288839,60,1,9.1,7,8.8,8.530885,30,4,l
54.706099,85,1,7.9,6.88237,7.9,8.530885,35,9,m
254.683417,60,1,7.8,5.7,7.2,8.530885,18,0,l
133.479368,85,1,9.1,7.2,8.3,8.530885,29,9,l
163.551607,85,1,8.1,6.88237,8,8.530885,30,63,l
56.917482,85,1,8.1,6.88237,8.3,9,45,13,m
4495.408608,88,1,8.6,6.88237,9.1,8.530885,33,0,s
1774.292344,60,1,9.1,7,8.8,8.530885,30,6,l
92.155592,86,1,8.2,6.88237,7.8,9,30,0,s
16253.92744,85,1,8.4,6.7,8.2,8,33,0,s
4193.441905,85,1,7.6,6.5,7.8,8.530885,13,67,s
236.122859,81,1,8.3,6.88237,8.3,8.530885,25,18,m
7050.174138,88,1,8.1,7.3,8.2,8.530885,10,0,s
281.933032,85,1,8.2,6.88237,8.009683,6,7,0,m
254.6226,85,1,7.8,6.8,7.7,8,24,11,s
112.233744,85,1,9.1,7.2,8.3,8.530885,29,15,l
35.554943,60,1,7.8,6.5,7.3,8.530885,20,10,m
608.381948,89,1,8.8,7.2,8.5,9,22,9,l
98.79173,85,1,8.3,6.9,8.1,8.530885,27,8,m
129.723784,85,1,8.3,6.88237,8.1,8.530885,15,214,m
1438.401523,89,1,7.3,6.88237,8.009683,8.530885,28,8,s
2247.961799,85,1,9,6.88237,8.5,7,22,0,s
12.913653,81,1,8,6.88237,8,8.530885,33,14,s
920.618848,85,1,8.5,7.7,8.1,9,13,0,s
181.965274,89,1,8.3,6.88237,8.009683,9,22,0,m
58.924935,85,1,8.1,6.88237,8.3,9,45,16,m
317.446078,85,1,7.5,6.88237,7.5,7,30,136,s
171.577626,50,1,7,6.88237,8.009683,8,21,0,s
2725.499726,85,5,6.4,6.88237,6.4,8.530885,26.742663,647,m
79.62658,85,3,7.5,6.9,7.2,9,10,5,m
286.072602,86,1,7.2,6.88237,7.2,10,20,183,m
14.472725,83,1,7,6.88237,7.4,8,15,113,m
171.858056,85,1,6.7,6.3,6.6,8.530885,22,0,s
2517.899389,60,1,9.1,7,8.8,8.530885,30,6,m
181.341856,89,1,8.3,6.88237,8.009683,9,22,12,s
575.942274,81,1,7.3,6.88237,8.009683,7,20,23.263212,s
99.853781,85,1,9.1,7.2,8.3,8.530885,29,10,l
289.215967,85,1,6.7,6.3,6.7,4,33,0,s
210.602088,85,1,9.1,7.2,8.3,8.530885,29,8,l
214.215112,85,1,7.5,6.88237,8.009683,8.530885,33,0,s
10835.34458,80,1,9.5,6.88237,8.5,12,33,0,m
93.461581,84,1,6.6,6.2,6.6,7,26,116,s
566.286185,85,1,9.1,7.2,8.3,8.530885,29,7,m
17006.79949,85,1,9.5,6.88237,8.5,12,33,0,m
29.672502,85,3,7.5,6.9,7.2,9,10,0,m
181.575236,89,1,8.3,6.88237,8.009683,9,22,11,m
237.555707,82,1,7.9,6.88237,7.9,9,47,17,m
1913.809614,85,1,9,6.88237,8.5,7,22,0,s
4660.956423,88,1,7.5,5.8,6.6,4,10,0,s
141.301804,89,1,8.3,6.88237,8.009683,9,22,16,l
520.874777,60,1,9.1,7,8.8,8.530885,30,0,m
312.323309,85,1,8.2,6.88237,8.009683,6,7,0,s
16.058602,85,3,7.5,6.9,7.2,9,10,6,l
124.860627,82,1,7.1,6.88237,8.009683,8.530885,48,7,s
515.60036,85,1,9.1,7.2,8.3,8.530885,29,4,m
17665.2922,85,1,9.5,6.88237,8.5,12,33,91,s
106.543577,85,1,8.1,6.88237,8.3,9,45,32,m
780.875945,85,1,9.1,7.2,8.3,8.530885,29,16,s
1705.968362,85,1,8.8,7,8,8,35,24,s
45.861495,60,1,7.8,6.5,7.3,8.530885,20,5,l
97.43413,85,1,9.1,7.2,8.3,8.530885,29,14,l
22.263471,85,1,7.9,6.88237,7.9,8.530885,35,61,l
318.584718,85,1,9.1,7.2,8.3,8.530885,29,6,m
6245.349049,80,1,7.9,6.88237,7.9,9,47,11,s
604.835866,60,3,7.7,6.88237,8.009683,4,15,5,s
3956.085177,80,1,8.6,6.88237,9.1,8.530885,33,0,m
989.019959,86,1,9.1,7.2,8.3,8.530885,29,23.263212,s
67.131781,85,1,6.9,6.4,6.7,10,44,27,s
9611.556294,88,1,8.2,6.88237,8.009683,8,25,288,s
233.508589,85,1,8.3,6.88237,8.1,8.530885,15,12,m
98.090674,74,1,7.6,6.3,7.4,10,10,8,s
2516.63653,60,1,9.1,7,8.8,8.530885,30,8,s
5533.911581,89,1,8.2,6.88237,8.009683,9,47,0,s
2725.499726,73,1,7.8,6.88237,7.3,7,22,647,s
8785.675998,81,1,9.5,6.88237,8.5,12,33,0,m
104.34205,85,1,9.1,7.2,8.3,8.530885,29,7,m
5597.203133,80,1,8.3,7.3,8.1,9,14,0,s
5945.032461,60,1,9.1,7,8.8,8.530885,30,14,m
10645.09725,80,1,9.5,6.88237,8.5,12,33,0,l
1039.618785,84,1,7.7,6.6,7.6,8,17,0,m
1809.535367,60,1,9.1,7,8.8,8.530885,30,0,m
140.864067,87,3,7.8,6.88237,7.9,11,35,0,m
1739.648262,60,1,9.1,7,8.8,8.530885,30,9,l
2023.011681,87,1,8.3,6.88237,8.009683,10,40,0,s
57.161185,83,3,7.5,6.88237,8.009683,9,20,0,l
129.424295,85,1,9.1,7.2,8.3,8.530885,29,7,m
183.101983,89,1,8.3,6.88237,8.009683,9,22,19,m
2725.499726,85,1,8.1,6.88237,8,8.530885,30,647,m
92.793868,89,1,8,6.7,7.9,8,39,10,m
181.915696,89,1,8.3,6.88237,8.009683,9,22,17,m
6076.321794,80,1,9.1,7.2,8.3,8.530885,29,0,s
13.084641,82,1,7.4,7,7,8.530885,15,17,s
206.363175,81,1,8.1,7.1,8.1,8.530885,18,21,m
222.70712,85,1,6.7,6.88237,6.7,8.530885,20,45,s
3809.365548,85,1,7.6,6.4,7.6,6,50,6,s
259.946849,60,1,9.1,7,8.8,8.530885,30,12,l
3554.73697,80,3,8.6,6.88237,7.3,6,15,0,l
1838.969933,60,1,9.1,7,8.8,8.530885,30,0,m
295.131246,82,1,7.1,6.4,7.1,8.530885,25,0,s
121.241135,85,1,9.1,7.2,8.3,8.530885,29,9,m
209.548178,85,1,7.4,6.3,7.2,10,56,0,s
78.567613,85,1,7.5,6.88237,8.009683,5,40,0,m
11100.72687,89,1,8.7,7.7,7.8,6,30,7,s
6196.690537,88,1,7.9,6.6,7.9,5,33,0,s
119.059234,89,1,8.8,7.2,8.5,9,22,6,m
5985.744405,80,1,9.1,7.2,8.3,8.530885,29,4,m
5518.287852,80,1,7.6,6.4,7.3,8.530885,45,0,s
2476.39689,60,1,9.1,7,8.8,8.530885,30,7,m
51.063092,85,3,7.5,6.9,7.2,9,10,9,l
120.190986,88,1,7.6,5.4,7.7,8.530885,30,0,m
154.423386,89,1,8.3,6.88237,8.009683,9,22,11,m
6308.622097,80,1,9.1,7.2,8.3,8.530885,29,10,m
97.676876,85,1,8.3,6.88237,8.1,8.530885,15,0,m
17.804759,84,1,6.4,6.1,6.3,8.530885,33,63,s
17073.46699,85,1,8.3,6.88237,8.009683,9,22,0,s
60.388079,83,3,7.5,6.88237,8.009683,9,20,10,l
82.354085,85,1,7.8,6.8,7.7,8,24,0,m
4350.18569,85,1,8,6.4,7.7,6,19,67,s
261.113283,60,1,9.1,7,8.8,8.530885,30,14,l
7680.439975,60,1,9.1,7,8.8,8.530885,30,1,s
10640.64629,80,1,9.5,6.88237,8.5,12,33,23,l
124.11096,85,1,7.2,6,7.2,8.530885,44,0,s
71.32413,50,3,7,6.88237,7.2,11,40,171,m
276.650502,60,1,7.8,6.5,7.3,8.530885,20,0,s
1402.215031,81,1,7.7,6.4,7.9,8.530885,33,0,s
2488.925989,60,1,9.1,7,8.8,8.530885,30,18,m
1541.584784,85,1,8.8,7,8,8,35,3,s
195.351619,81,1,8.1,7.1,8.1,8.530885,18,25,l
13068.09238,88,1,9.1,7,8.8,8.530885,30,0,s
262.805252,85,1,6.9,6.88237,6.9,8.530885,30,0,s
152.426051,85,1,9.1,7.2,8.3,8.530885,29,21,m
181.446574,89,1,8.3,6.88237,8.009683,9,22,17,s
5889.433228,80,1,7.8,6.88237,7.9,8.530885,35,11,s
1053.723376,85,3,6.8,6.3,6.9,8.530885,20,0,s
238.291711,89,1,8.3,6.88237,8.3,11,40,10,l
410.111459,85,1,9.1,7.2,8.3,8.530885,29,11,m
374.030501,85,1,5.5,6.1,5.5,8.530885,29,15,s
106.640545,84,1,8,6.4,7.9,6,33,7,l
2579.348969,60,1,9.1,7,8.8,8.530885,30,3,m
104.777472,85,1,9.1,7.2,8.3,8.530885,29,10,m
203.45061,89,1,8.2,6.88237,8.009683,8,25,7,m
93.119501,85,1,9.1,7.2,8.3,8.530885,29,8,s
3623.925681,80,3,8.6,6.88237,7.3,6,15,0,l
1841.184301,60,1,9.1,7,8.8,8.530885,30,9,m
177.486028,85,1,7.7,6.6,7.6,8,17,10,s
181.369791,89,1,8.3,6.88237,8.009683,9,22,15,s
2810.14606,81,1,7.2,7.2,7.2,4,65,5,s
134.516544,85,1,9.1,7.2,8.3,8.530885,29,8,m
2725.499726,85,1,7.9,6.88237,7.9,8.530885,35,647,s
791.256147,81,1,7.2,7.2,7.2,4,65,0,s
197.47683,89,1,8.3,6.88237,8.009683,9,22,10,m
1497.645863,81,1,8,7.2,7.8,7,55,0,s
1675.683388,85,1,8.8,7,8,8,35,7,s
157.329117,85,1,8.2,6.88237,8.009683,6,7,0,m
5038.613395,60,1,9.1,7,8.8,8.530885,30,19,l
176.41109,85,1,9.1,7.2,8.3,8.530885,29,10,l
4710.46138,60,1,9.1,7,8.8,8.530885,30,7,m
3481.359914,80,3,8.6,6.88237,7.3,6,15,0,l
15086.5289,89,1,8.8,7,8,8,35,0,s
219.738569,60,1,7.7,6.1,7.2,8.530885,20,14,m
652.19514,85,1,9.1,7.2,8.3,8.530885,29,6,m
99.094083,80,3,7.7,6,7.2,9,2,0,m
14422.21844,80,1,8.1,6.88237,8.009683,8.530885,48,0,s
13246.16566,89,1,9,6.88237,8.5,7,22,0,s
211.738309,89,1,6.7,6.3,6.4,8.530885,20,48,s
138.018281,89,1,8.4,6.7,8.2,8,33,10,m
2259.357437,88,1,8.1,6.88237,8.2,10,35,0,s
262.456565,60,1,9.1,7,8.8,8.530885,30,9,l
227.903089,85,1,9.1,7.2,8.3,8.530885,29,11,l
2496.495588,60,1,9.1,7,8.8,8.530885,30,0,m
5127.805075,85,3,7,5.8,7.1,8.530885,25,0,s
133.432608,85,1,9.1,7.2,8.3,8.530885,29,7,l
232.901462,86,1,7.9,6.88237,7.2,8.530885,28,8,s
16163.36874,85,1,8,6.6,7.3,7,46,6,s
73.884624,60,1,9.1,7,8.8,8.530885,30,8,l
125.157516,85,1,9.1,7.2,8.3,8.530885,29,9,m
182.965988,89,1,8.3,6.88237,8.009683,9,22,12,m
1779.674854,60,1,9.1,7,8.8,8.530885,30,8,m
18530.49416,84,1,8.8,7.2,8.5,9,22,0,s
315.459832,85,1,9.1,7.2,8.3,8.530885,29,7,m
101.955806,85,1,9.1,7.2,8.3,8.530885,29,6,m
264.500901,60,1,9.1,7,8.8,8.530885,30,7,l
106.668364,85,1,9.1,7.2,8.3,8.530885,29,10,l
1988.599879,82,1,6.5,6.88237,8.009683,8.530885,41,0,s
90.370677,85,1,7.5,6.88237,8.009683,5,40,0,m
132.709483,85,1,9.1,7.2,8.3,8.530885,29,12,l
5499.17315,80,1,7.9,6.88237,7.2,8.530885,28,0,s
162.234696,85,1,8.3,6.9,8.1,8.530885,27,0,s
392.693574,88,1,7.7,6.5,7.5,8.530885,14,0,s
1676.553716,60,1,9.1,7,8.8,8.530885,30,10,l
4670.761928,85,1,8,6.4,7.7,6,19,0,s
209.29632,71,1,7.4,6.88237,8.009683,8.530885,10,6,s
27.075302,60,3,7.8,6.5,7.5,11,28,6,m
3690.557817,80,3,8.6,6.88237,7.3,6,15,48,l
883.069778,85,1,8.1,7.3,8.2,8.530885,10,6,s
2994.180495,85,1,7.4,6.88237,7.4,7,33,0,s
107.821823,60,1,9.1,7,8.8,8.530885,30,8,m
1850.233602,60,1,7.7,6.1,7.2,8.530885,20,0,s
286.060822,85,1,9.1,7.2,8.3,8.530885,29,14,l
85.691014,85,1,9.1,7.2,8.3,8.530885,29,18,l
116.367338,85,1,7.7,6.6,7.6,8,17,0,l
2318.408447,85,1,9,6.88237,8.5,7,22,0,m
24.353395,50,1,7,6.88237,8.009683,8,21,10,m
4179.296489,85,1,8,6.4,7.7,6,19,0,s
43.826454,60,1,7.8,6.5,7.3,8.530885,20,8,l
80.294363,85,3,7.5,6.9,7.2,9,10,4,m
60.730103,82,1,8.1,6.8,7.9,8.530885,24,10,m
141.13796,87,3,8.6,6.88237,7.3,6,15,9,l
190.906897,81,1,8.1,7.1,8.1,8.530885,18,3,l
12738.07979,88,1,9.1,7,8.8,8.530885,30,0,s
707.389029,85,1,7.8,6.8,7.7,8,24,55,s
3939.338181,80,1,8.6,6.88237,9.1,8.530885,33,30,m
458.376934,85,1,6.2,5.8,6.2,8,15,0,s
396.619366,81,1,8.1,7.1,8.1,8.530885,18,0,m
8065.490571,82,1,7.8,6.3,7.6,7,33,0,s
3956.085177,80,1,8.6,6.88237,9.1,8.530885,33,0,m
98.559253,85,1,9.1,7.2,8.3,8.530885,29,4,l
14121.00251,85,1,8.1,6.4,7.7,9,23,0,s
161.16734,82,1,8.1,6.8,7.9,8.530885,24,22,m
261.631105,85,1,8.4,6.88237,8.5,8.530885,15,0,m
117.732978,85,1,7.1,6.3,7.1,9,9,0,s
34.354055,85,1,7.6,6.88237,7.3,8.530885,74,0,s
257.948491,85,1,9.1,7.2,8.3,8.530885,29,7,l
16572.4157,85,1,8.2,6.88237,8.009683,8,25,7,s
135.756995,85,1,9.1,7.2,8.3,8.530885,29,7,l
6530.551082,88,1,8.3,7.3,8.1,9,14,0,s
185.116909,81,1,8.1,7.1,8.1,8.530885,18,16,m
914.022317,85,3,7.5,6.9,7.2,9,10,62,s
286.96887,85,1,8.4,6.88237,8.5,8.530885,15,111,m
95.349649,85,1,9.1,7.2,8.3,8.530885,29,7,s
854.685164,85,1,9.1,7.2,8.3,8.530885,29,10,m
174.066095,88,1,7.7,6.5,7.5,8.530885,14,72,s
181.63115,89,1,8.3,6.88237,8.009683,9,22,17,m
18003.43726,85,1,8,6.7,7.8,8,40,12,s
7258.68154,81,3,8.6,6.88237,7.3,6,15,0,l
117.781881,85,1,9.1,7.2,8.3,8.530885,29,12,s
254.394037,60,1,7.8,5.7,7.2,8.530885,18,7,l
1246.08784,85,1,9.1,7.2,8.3,8.530885,29,0,s
208.542834,85,1,7.4,6.88237,7.4,8.530885,60,0,m
25.524589,82,1,8.1,6.8,7.9,8.530885,24,4,s
8389.743782,88,1,8,7.2,7.8,7,55,9,s
12090.60887,87,1,9.5,6.88237,8.5,12,33,12,s
9211.173654,88,1,9.5,6.88237,8.5,12,33,0,s
11351.46278,87,1,8.2,6.88237,8.009683,8,25,0,s
284.226415,89,1,8.8,7.2,8.5,9,22,7,m
8810.626942,81,1,9.5,6.88237,8.5,12,33,0,m
98.79173,85,1,8.3,6.9,8.1,8.530885,27,8,m
92.087443,85,1,9.1,7.2,8.3,8.530885,29,4,l
45.579671,89,1,8.8,7.2,8.5,9,22,20,l
2006.350909,60,1,9.1,7,8.8,8.530885,30,5,m
241.947293,85,1,9.1,7.2,8.3,8.530885,29,6,l
1630.480916,60,1,7.7,6.1,7.2,8.530885,20,0,s
501.311474,85,1,7.6,6.3,7.4,8.530885,24,0,s
181.310833,89,1,8.3,6.88237,8.009683,9,22,15,m
268.22167,85,1,9.1,7.2,8.3,8.530885,29,7,m
98.921449,86,1,8.3,6.5,7.8,8.530885,10,12,l
91.26218,85,1,6.3,6.88237,8.009683,8.530885,40,17,s
108.150016,85,1,9.1,7.2,8.3,8.530885,29,6,l
30.76007,50,1,7,6.88237,8.009683,8,21,5,m
302.576056,81,1,8.1,7.1,8.1,8.530885,18,0,m
3617.907971,80,3,8.6,6.88237,7.3,6,15,0,m
97.946072,86,1,8.3,6.5,7.8,8.530885,10,0,l
24.612962,50,1,7,6.88237,8.009683,8,21,7,s
166.94559,81,1,8.1,7.1,8.1,8.530885,18,10,m
155.964284,85,1,8.2,6.88237,8.009683,6,7,0,s
4767.115054,88,1,8.7,7.7,7.8,6,30,0,s
135.676859,85,1,9.1,7.2,8.3,8.530885,29,21,l
11114.44672,81,1,9.5,6.88237,8.5,12,33,10,s
75.761559,85,1,9.1,7.2,8.3,8.530885,29,5,l
10645.13356,81,1,8.5,6.88237,8.5,11,25,22,s
10026.81244,81,1,9.1,7,8.8,8.530885,30,2,s
2107.901675,60,1,9.1,7,8.8,8.530885,30,4,m
92.065813,85,1,9.1,7.2,8.3,8.530885,29,5,l
700.739491,60,1,9.1,7,8.8,8.530885,30,127,l
271.703954,85,1,9.1,7.2,8.3,8.530885,29,4,l
1180.094461,87,1,8.2,6.88237,8.009683,8,32,14,s
153.240749,85,1,9.1,7.2,8.3,8.530885,29,9,l
205.508255,85,1,9.1,7.2,8.3,8.530885,29,7,l
183.158255,89,1,8.3,6.88237,8.009683,9,22,12,m
3934.150564,88,1,8.7,7.7,7.8,6,30,4,s
89.942137,85,1,8.3,6.9,8.1,8.530885,27,5,m
435.458285,82,1,7.7,6.88237,8.009683,8.530885,37,9,s
117.529167,85,1,9.1,7.2,8.3,8.530885,29,11,m
412.244384,85,1,8.3,6.88237,8.009683,10,40,0,s
481.928792,73,1,7.8,6.88237,7.3,7,22,0,s
2917.377697,85,1,7.6,6.88237,8.009683,7,32,58,s
207.536976,85,1,8.3,6.88237,8.3,8.530885,26.742663,8,m
3562.522226,80,3,8.6,6.88237,7.3,6,15,13,m
6308.536503,80,1,9.1,7.2,8.3,8.530885,29,0,s
209.273437,81,1,8.1,7.1,8.1,8.530885,18,13,m
2725.499726,85,1,8.1,6.88237,8,8.530885,30,647,l
2433.319057,82,1,7.6,6.4,7.3,8.530885,45,0,s
10990.67205,80,1,9.5,6.88237,8.5,12,33,15,s
480.459416,85,1,9.1,7.2,8.3,8.530885,29,0,m
151.877848,85,1,9.1,7.2,8.3,8.530885,29,12,m
37.375088,50,1,6.5,6.88237,6.7,9,15,0,s
2149.120528,85,1,8.8,7,8,8,35,0,s
126.797012,85,1,9.1,7.2,8.3,8.530885,29,15,l
4979.500211,80,1,9,6.88237,8.5,7,22,0,m
4069.175755,88,3,7.7,6,7.2,9,2,5,s
181.525771,89,1,8.3,6.88237,8.009683,9,22,19,m
2873.881579,87,1,8.1,7.3,8.2,8.530885,10,0,s
11.17556,88,1,8,6.6,7.4,8.530885,33,0,m
20.320408,86,1,6.2,5.3,6.2,8.530885,5,54,m
10423.9651,81,1,8.2,6.88237,8.009683,8,25,0,s
5000.357592,60,1,9.1,7,8.8,8.530885,30,11,m
63.029017,82,1,7.6,6.5,7.8,8.530885,13,0,s
17102.75441,71,1,9.1,7.2,8.3,8.530885,29,6,s
22.855695,50,3,7,6.88237,7.2,11,40,0,l
324.068381,85,1,9.1,7.2,8.3,8.530885,29,6,m
300.115875,85,1,7.7,6.6,7.6,8,17,0,s
264.035578,85,1,8.4,6.88237,8.5,8.530885,15,0,m
131.234234,85,1,9.1,7.2,8.3,8.530885,29,9,m
16719.73056,85,1,8.3,6.88237,8.009683,9,22,0,s
526.53635,85,1,7.7,6.88237,7.7,8.530885,30,7,s
4173.413785,87,1,8.1,6.88237,8,8.530885,30,8,s
21.580958,89,1,7.2,6.88237,8.009683,8.530885,28,0,s
8993.238293,81,1,8.8,7.2,8.5,9,22,25,s
48.271514,85,1,7.1,6.88237,8.009683,8.530885,60,91,s
7353.060893,81,1,8.8,7.2,8.5,9,22,12,m
227.74413,81,1,8.1,7.1,8.1,8.530885,18,13,m
97.208898,60,3,7.8,6.5,7.5,11,28,0,m
6539.386614,88,1,9,6.88237,8.5,7,22,0,s
11151.80033,80,1,9.5,6.88237,8.5,12,33,6,m
1701.551929,60,1,9.1,7,8.8,8.530885,30,7,l
181.88215,89,1,8.3,6.88237,8.009683,9,22,5,m
3642.681047,80,3,8.6,6.88237,7.3,6,15,0,l
125.979545,85,1,9.1,7.2,8.3,8.530885,29,11,l
696.688897,85,1,9.1,7.2,8.3,8.530885,29,0,s
81.358906,82,1,8.1,6.8,7.9,8.530885,24,7,m
1247.697523,88,3,9.2,6.88237,8.4,10,25,0,m
6.28521,85,3,7.5,6.9,7.2,9,10,15,m
181.516983,89,1,8.3,6.88237,8.009683,9,22,17,m
41.453116,85,3,7.5,6.9,7.2,9,10,3,m
128.815482,85,1,9.1,7.2,8.3,8.530885,29,9,m
8763.586172,88,1,8.3,6.88237,8.009683,9,22,0,s
173.689105,81,1,7.8,6.5,7.7,8.530885,12,4,s
7366.951056,81,3,8.6,6.88237,7.3,6,15,3,l
7505.584304,88,1,8.2,6.88237,8.009683,8,25,5,s
181.397091,89,1,8.3,6.88237,8.009683,9,22,15,m
114.418316,85,1,6.3,6.88237,8.009683,3,15,69,s
262.094423,60,1,9.1,7,8.8,8.530885,30,11,m
63.023025,83,3,7.5,6.88237,8.009683,9,20,14,m
1732.336275,60,1,9.1,7,8.8,8.530885,30,11,m
283.731768,85,1,8.1,6.88237,8,8.530885,30,0,s
192.743377,81,1,8.1,7.1,8.1,8.530885,18,9,m
247.52374,60,1,7.8,5.7,7.2,8.530885,18,7,m
176.554718,89,1,8.8,7.2,8.5,9,22,22,m
182.513968,89,1,8.3,6.88237,8.009683,9,22,11,s
586.553931,85,1,5.6,6.88237,8.009683,8.530885,11,95,s
1900.096542,73,1,8.5,6.88237,8.5,9,26.742663,137,m
3573.222691,80,1,8.6,6.88237,9.1,8.530885,33,22,m
356.445072,89,1,8.1,6.4,7.7,9,23,13,s
64.64384,85,1,8.1,6.88237,8,8.530885,30,0,l
2886.686878,85,1,9,6.88237,8.5,7,22,0,s
1817.34817,84,1,7.8,6.8,7.7,8,24,0,s
1825.631345,82,1,8.1,6.8,7.9,8.530885,24,0,s
11425.06236,88,1,8.8,7.2,8.5,9,22,0,s
150.882051,85,1,6,6.88237,6,8.530885,60,20,s
326.639074,85,1,9.1,7.2,8.3,8.530885,29,4,l
131.16028,85,1,7.7,6.88237,7.7,8.530885,30,26,s
9287.962113,88,1,8.1,6.88237,8,8.530885,30,0,s
17012.77543,85,1,9.5,6.88237,8.5,12,33,18,m
116.686916,85,1,9.1,7.2,8.3,8.530885,29,7,l
10182.41432,88,1,7.9,6.3,7.9,6,48,0,s
771.158182,50,1,7.8,6.88237,8.009683,9,17,3,s
372.915907,88,1,6.1,5.6,5.8,8.530885,20,0,s
322.616397,85,1,7.7,6.6,7.6,8,17,0,s
502.28862,50,1,6.8,6.5,6.9,10,12,0,s
947.421022,88,1,7.7,6.5,7.5,8.530885,14,9,s
227.071048,88,1,7.3,6.6,7.4,8.530885,24,0,s
213.904163,81,1,8.1,7.1,8.1,8.530885,18,22,l
9485.30296,88,1,8.6,6.88237,9.1,8.530885,33,16,s
21.152733,85,3,7.5,6.9,7.2,9,10,6,s
6306.725885,80,1,9.1,7.2,8.3,8.530885,29,10,m
182.168692,89,1,8.3,6.88237,8.009683,9,22,17,m
80.330733,85,1,8.3,6.88237,8.1,8.530885,15,0,m
13710.68432,89,1,7.8,6.2,7.2,8.530885,33,0,s
129.614698,85,1,9.1,7.2,8.3,8.530885,29,10,l
270.20905,85,1,7.8,6.8,7.7,8,24,14,s
1580.065483,60,1,7.9,6.88237,8.009683,8.530885,26.742663,10,s
630.390082,88,1,7.5,6.2,7.5,8.530885,43,0,s
438.446393,85,1,5.7,5.4,5.1,8.530885,33,72,s
1127.304073,85,1,9.1,7.2,8.3,8.530885,29,10,s
94.438515,85,1,9.1,7.2,8.3,8.530885,29,14,l
3730.349657,85,3,7,5.8,7.1,8.530885,25,8,s
723.1416,60,1,7.8,6.88237,8.009683,5,24,0,s
244.287024,85,1,7.4,6.2,7.1,8.530885,10,21,s
3568.954663,80,3,8.6,6.88237,7.3,6,15,0,s
1023.323984,89,1,8.8,7.2,8.5,9,22,0,s
3805.412492,80,3,8.6,6.88237,7.3,6,15,0,m
12683.38454,81,1,8.5,6.88237,8.5,11,25,0,s
44.177519,82,1,8.1,6.8,7.9,8.530885,24,11,m
1083.792565,85,1,7.1,6.4,6.9,8.530885,28,0,s
361.059349,85,1,7.8,6.8,7.7,8,24,14,m
258.629574,89,1,8.3,6.88237,8.009683,9,22,10,m
124.184282,85,1,9.1,7.2,8.3,8.530885,29,6,m
2725.499726,85,1,7.4,6.88237,7.4,8.530885,26.742663,647,l
202.020697,85,1,9.1,7.2,8.3,8.530885,29,0,m
127.016129,85,1,9.1,7.2,8.3,8.530885,29,8,s
135.164061,85,1,9.1,7.2,8.3,8.530885,29,16,l
46.53893,89,1,8.8,7.2,8.5,9,22,30,l
135.221853,85,1,9.1,7.2,8.3,8.530885,29,13,l
2490.199006,60,1,9.1,7,8.8,8.530885,30,9,m
94.089052,85,1,9.1,7.2,8.3,8.530885,29,10,l
3566.335716,80,1,8.6,6.88237,9.1,8.530885,33,17,m
81.006913,85,1,7.8,6.8,7.7,8,24,0,m
103.33311,85,1,9.1,7.2,8.3,8.530885,29,9,m
5274.673649,81,1,8.1,6.88237,8.009683,9,19,0,s
810.131567,85,1,9.1,7.2,8.3,8.530885,29,6,s
847.860577,85,1,7.1,6.3,7.1,8,50,0,s
12165.84277,81,1,8,6.6,7.4,8.530885,33,15,s
3658.910834,81,1,8.1,6.88237,8.3,9,45,0,s
67.564339,85,1,7.5,6.88237,8.009683,5,40,12,m
68.288193,60,3,7.8,6.5,7.5,11,28,20,m
161.28197,86,1,8.3,6.5,7.8,8.530885,10,6,l
127.831245,85,1,9.1,7.2,8.3,8.530885,29,8,m
1041.521113,84,1,7.7,6.6,7.6,8,17,0,m
1175.198105,85,1,8.3,7.3,8.1,9,14,7,s
851.739619,85,1,9.1,7.2,8.3,8.530885,29,0,m
12862.15327,71,1,9.1,7,8.8,8.530885,30,0,s
11.093536,85,1,6.4,6.88237,8.009683,8.530885,12,9,s
1998.459486,85,1,9,6.88237,8.5,7,22,0,m
5934.584272,84,1,8.8,7,8,8,35,0,s
3648.652331,80,1,8.6,6.88237,9.1,8.530885,33,0,m
39.972231,82,1,8.1,6.8,7.9,8.530885,24,0,m
11128.69825,81,1,9.5,6.88237,8.5,12,33,3,s
154.667099,85,1,8.3,6.88237,8.1,8.530885,15,27,s
137.25917,87,3,8.6,6.88237,7.3,6,15,20,l
52.580323,83,3,7.5,6.88237,8.009683,9,20,16,m
2167.967375,85,1,8.3,6.88237,8.009683,10,40,10,s
622.276007,85,1,9.1,7.2,8.3,8.530885,29,6,s
3272.502646,84,1,9.1,7.2,8.3,8.530885,29,5,s
9210.62408,81,1,9.1,7,8.8,8.530885,30,188,s
94.611453,88,1,8.2,6.88237,8.009683,9,47,0,m
201.422288,85,1,9.1,7.2,8.3,8.530885,29,6,m
171.503085,85,1,8.3,6.9,8.1,8.530885,27,5,s
174.880865,84,1,7.6,6.88237,8.009683,7,32,0,s
4684.624253,60,1,8.6,7.2,8.4,8.530885,30,0,s
10048.30773,88,1,8,6.88237,8,8.530885,26.742663,12,s
8528.153566,88,1,8.3,6.88237,8.3,11,40,6,s
7811.774089,88,1,8,6.7,7.9,8,39,0,s
83.123253,85,1,9.1,7.2,8.3,8.530885,29,21,s
391.649398,85,1,6.9,6.4,6.9,8.530885,33,4,s
6403.797509,60,1,9.1,7,8.8,8.530885,30,0,m
101.899517,83,3,8.2,6.5,8.1,9,33,21,m
16971.71833,85,1,9.5,6.88237,8.5,12,33,25,l
133.477901,85,1,9.1,7.2,8.3,8.530885,29,9,l
251.860979,85,1,9.1,7.2,8.3,8.530885,29,7,m
129.954931,85,1,9.1,7.2,8.3,8.530885,29,8,m
1060.945731,73,1,7.8,6.88237,8.3,9,10,13,s
404.340866,85,1,9.1,7.2,8.3,8.530885,29,5,s
2025.179897,60,1,9.1,7,8.8,8.530885,30,6,l
118.271956,85,1,9.1,7.2,8.3,8.530885,29,12,l
82.765287,85,1,9.1,7.2,8.3,8.530885,29,20,s
270.950671,85,1,7.4,6.88237,8.009683,8.530885,34,8,s
166.884902,85,1,7.2,6,7.2,8.530885,44,0,s
911.580147,85,1,8.5,7.7,8.1,9,13,19,s
17096.77228,85,1,8.3,6.88237,8.009683,9,22,0,s
655.351735,81,1,8.1,7.1,8.1,8.530885,18,0,s
121.212497,85,1,9.1,7.2,8.3,8.530885,29,7,s
3960.102665,80,1,8.6,6.88237,9.1,8.530885,33,7,m
16747.93895,85,1,9.5,6.88237,8.5,12,33,8,m
8624.303362,80,1,8.1,6.4,7.7,9,23,0,s
6710.694725,88,1,9,6.88237,8.5,7,22,0,s
188.960251,81,1,8.1,7.1,8.1,8.530885,18,20,l
4010.465479,87,1,9.1,7.2,8.3,8.530885,29,12,s
223.871,85,1,9.1,7.2,8.3,8.530885,29,23,l
5590.671688,74,1,8.5,6.88237,8.009683,11,26.742663,11,s
280.931542,85,1,8.4,6.88237,8.5,8.530885,15,117,m
534.011236,60,1,9.1,7,8.8,8.530885,30,3,m
416.22001,85,1,9.1,7.2,8.3,8.530885,29,5,m
248.564778,85,1,8.3,6.88237,8.1,8.530885,15,0,m
432.253803,60,1,8.3,7,8,8.530885,25,7,m
315.26599,86,1,7.9,6.88237,7.2,8.530885,28,0,s
93.632741,84,1,7,6.4,7.3,8.530885,10,0,s
27.700211,50,1,7,6.88237,8.009683,8,21,7,m
256.815639,85,1,8.4,6.88237,8.5,8.530885,15,0,m
276.996852,85,1,7.7,6.8,7.7,8,44,0,s
4571.645008,81,1,9,6.88237,8.5,7,22,18,s
6.842792,85,3,7.5,6.9,7.2,9,10,8,l
136.409661,85,1,9.1,7.2,8.3,8.530885,29,12,l
7.022178,85,3,7.5,6.9,7.2,9,10,6,m
17438.00409,85,1,8,6.6,7.3,7,46,8,s
9.724372,85,3,7.5,6.9,7.2,9,10,8,m
202.183615,88,1,7.6,5.4,7.7,8.530885,30,13,m
132.656247,85,1,9.1,7.2,8.3,8.530885,29,7,s
182.23196,89,1,8.3,6.88237,8.009683,9,22,6,s
106.70901,85,1,9.1,7.2,8.3,8.530885,29,6,l
183.454398,89,1,8.3,6.88237,8.009683,9,22,7,s
521.806672,85,1,7.1,6.3,7.1,9,9,44,s
3595.290328,60,1,9.1,7,8.8,8.530885,30,0,s
3792.542901,80,3,8.6,6.88237,7.3,6,15,31,l
1.32841,84,1,6.7,6.3,6.6,8,11,0,s
151.204846,85,1,9.1,7.2,8.3,8.530885,29,12,l
38.963193,60,1,7.8,6.5,7.3,8.530885,20,10,m
338.354433,85,1,7.5,6.4,7.3,8.530885,33,32,s
3782.23921,80,1,8.6,6.88237,9.1,8.530885,33,0,m
257.231663,85,1,8.4,6.88237,8.5,8.530885,15,55,m
2398.806013,85,1,7.3,6.88237,7.3,8.530885,36,67,s
72.596982,60,1,7.8,6.5,7.3,8.530885,20,0,l
534.690553,87,1,7.8,6.88237,8.009683,8,28,0,s
3664.598526,80,1,8.6,6.88237,9.1,8.530885,33,12,m
259.197357,60,1,7.7,6.1,7.2,8.530885,20,8,m
36.240176,60,1,7.8,6.5,7.3,8.530885,20,8,m
124.571377,85,1,9.1,7.2,8.3,8.530885,29,8,m
123.6636,85,1,9.1,7.2,8.3,8.530885,29,8,m
802.206713,60,1,9.1,7,8.8,8.530885,30,9,m
216.756891,88,1,7.6,5.4,7.7,8.530885,30,27,s
2725.499726,81,3,7.1,6.88237,7.2,4,12,647,l
9.104959,85,3,7.5,6.9,7.2,9,10,0,m
3906.918043,80,1,7.9,6.88237,8.009683,6,109,6,s
7351.271326,81,1,8.8,7.2,8.5,9,22,15,m
1617.491544,60,1,9.1,7,8.8,8.530885,30,9,l
1592.259399,85,1,9,6.88237,8.5,7,22,9,s
634.776865,87,1,7.6,6.88237,8.009683,8,33,0,s
319.986086,85,1,6.9,6.7,6.9,8.530885,10,0,s
15299.80445,85,1,8.1,6.88237,7.5,9,38,7,s
10115.77679,81,1,7.7,6.5,7.5,8.530885,14,8,s
539.28231,82,1,8,6,8.2,8.530885,17,0,s
369.106214,82,1,6.9,6.88237,8.009683,7,10,9,s
188.864874,85,1,9.1,7.2,8.3,8.530885,29,13,l
1192.9619,85,1,7.5,6.4,7.3,8.530885,33,0,s
96.629347,85,1,9.1,7.2,8.3,8.530885,29,10,s
9618.598735,88,1,8.4,6.7,8.2,8,33,72,s
3673.971184,88,3,9.2,6.88237,8.4,10,25,0,s
10072.94652,87,1,8.1,6.88237,7.5,9,38,0,s
101.790603,85,1,7.2,6.2,6.8,8.530885,37,0,s
499.171193,85,1,9.1,7.2,8.3,8.530885,29,11,m
212.237695,85,1,9.1,7.2,8.3,8.530885,29,9,m
133.760305,85,1,8.3,6.9,8.1,8.530885,27,0,m
2522.150422,60,1,9.1,7,8.8,8.530885,30,5,m
9.770477,85,3,7.5,6.9,7.2,9,10,8,m
273.561218,89,1,8.3,6.88237,8.009683,9,22,9,m
10855.25598,80,1,9.5,6.88237,8.5,12,33,0,m
17415.36204,85,1,9.5,6.88237,8.5,12,33,14,m
4820.844689,81,1,8.7,7.7,7.8,6,30,0,s
8611.453794,81,3,8.6,6.88237,7.3,6,15,24,m
3560.083278,80,1,8.6,6.88237,9.1,8.530885,33,0,m
133.573649,60,1,7.8,6.5,7.3,8.530885,20,16,m
1014.895036,73,1,7.8,6.7,7.9,6,33,24,s
1297.850042,87,1,8.2,6.88237,8.009683,8,32,8,s
265.066327,85,1,8.3,6.9,8.1,8.530885,27,0,s
130.253377,85,1,9.1,7.2,8.3,8.530885,29,7,m
4888.1182,85,1,7.9,6.88237,7.9,9,47,0,s
3670.122532,85,1,7.4,6.3,7.4,6,73,0,s
203.186157,85,1,7.3,6.6,7.3,8.530885,51,0,s
89.444294,85,1,9.1,7.2,8.3,8.530885,29,7,m
790.301887,50,1,7.8,6.88237,8.009683,9,17,7,s
545.079213,87,3,7.5,6.4,7.1,7,18,5,s
277.27755,85,1,8.2,6.88237,8.009683,6,7,0,s
397.636194,85,1,7.5,6.88237,7.5,7,30,67,s
13235.40727,89,1,9.1,7.2,8.3,8.530885,29,8,m
205.397436,85,1,7.4,6.88237,7.4,8.530885,60,0,m
110.938626,82,1,8.1,6.8,7.9,8.530885,24,11,m
8574.298364,88,1,8.3,6.88237,8.009683,9,22,8,s
110.214492,50,1,8.30368,6.88237,8.009683,9,26.742663,52,s
5474.318684,80,1,8.3,6.88237,8.009683,10,40,6,s
204.952403,85,1,9.1,7.2,8.3,8.530885,29,8,l
27.642611,50,1,7,6.88237,8.009683,8,21,5,m
130.445096,85,1,9.1,7.2,8.3,8.530885,29,6,l
46.803834,50,3,7,6.88237,7.2,11,40,6,l
118.828734,85,1,9.1,7.2,8.3,8.530885,29,14,m
96.738894,85,1,9.1,7.2,8.3,8.530885,29,9,l
755.948596,85,1,8.1,6.88237,8.3,9,45,0,s
213.908158,81,1,8.1,7.1,8.1,8.530885,18,22,l
163.259017,83,1,8.30368,6.88237,8.009683,10,26.742663,20,m
708.901648,85,3,7.5,6.9,7.2,9,10,10,s
515.563425,85,1,9.1,7.2,8.3,8.530885,29,4,m
11172.46616,81,1,8.8,8.2,8.6,9,20,12,s
4837.085585,81,1,8.1,6.88237,8.009683,9,19,0,s
181.463805,89,1,8.3,6.88237,8.009683,9,22,20,m
2725.499726,60,3,7.8,6.5,7.5,11,28,647,m
496.820167,85,1,9.1,7.2,8.3,8.530885,29,9,m
4400.27941,60,1,8.1,6.88237,8.009683,8.530885,48,38,s
188.867496,85,1,9.1,7.2,8.3,8.530885,29,9,l
396.085786,87,1,7.7,6.88237,8.009683,8,10,68,s
180.394438,85,1,7.8,6.8,7.7,8,24,0,m
133.234127,89,1,8.2,6.88237,8.009683,8,25,6,m
122.902682,85,1,9.1,7.2,8.3,8.530885,29,7,m
69.214462,83,3,7.5,6.88237,8.009683,9,20,12,s
2503.5591,85,1,7.6,6.88237,8.009683,7,32,34,s
203.984404,85,1,7.4,6.88237,7.4,8.530885,60,26,m
5370.42779,89,1,7.3,6.88237,8.009683,8.530885,28,0,s
181.679261,89,1,8.3,6.88237,8.009683,9,22,18,l
16978.89999,85,1,8.2,6.88237,8.009683,8,25,17,s
89.099775,85,1,9.1,7.2,8.3,8.530885,29,7,l
357.543477,60,1,9.1,7,8.8,8.530885,30,88,m
877.307608,82,1,7.2,6.3,7.1,8.530885,23,17,s
55.15477,89,1,7.1,6.88237,7.1,6,30,0,s
963.149187,85,1,7.1,6.4,6.9,8.530885,28,8,s
20.970014,60,3,7.3,6.88237,7,9,27,15,m
67.038434,60,1,7.8,6.5,7.3,8.530885,20,0,s
809.289153,85,3,7.5,6.9,7.2,9,10,60,s
705.189796,85,1,8.1,6.88237,8.3,9,45,20,s
39.296891,60,1,7.8,6.5,7.3,8.530885,20,6,m
8670.631238,87,1,8.1,7.1,8.1,8.530885,18,0,s
3653.756801,80,1,8.6,6.88237,9.1,8.530885,33,13,m
243.071196,89,1,8.8,8.2,8.6,9,20,8,s
146.461296,85,1,8.2,6.88237,8.2,8.530885,26.742663,26,m
250.152857,60,1,9.1,7,8.8,8.530885,30,10,m
13005.88067,89,3,9.2,6.88237,8.4,10,25,0,s
287.61918,85,1,8.4,6.88237,8.5,8.530885,15,55,m
1189.629031,89,1,6.7,6.88237,8.009683,7,20,0,s
261.877547,60,1,7.8,5.7,7.2,8.530885,18,22,l
56.124095,85,3,7.5,6.9,7.2,9,10,7,m
3.975556,74,1,6.7,6.88237,6.7,9,14,9,l
3536.861517,80,1,8.6,6.88237,9.1,8.530885,33,0,m
65.662538,82,1,7.6,6.5,7.8,8.530885,13,1,s
111.079111,85,1,9.1,7.2,8.3,8.530885,29,6,m
15871.25452,85,1,8.1,6.6,7.6,9,13,72,s
6643.127878,85,1,7.5,6.4,7.3,8.530885,33,8,s
8535.626117,88,1,8.1,7.1,8.1,8.530885,18,0,s
142.123514,84,1,7.1,6.88237,8.009683,9,65,0,s
290.008962,50,3,7.1,6.5,7.7,10,10,35,s
89.427383,74,1,7.6,6.3,7.4,10,10,44,m
185.064334,81,1,8.1,7.1,8.1,8.530885,18,10,m
293.108466,85,1,9.1,7.2,8.3,8.530885,29,8,l
5309.789146,80,1,9,6.88237,8.5,7,22,0,m
579.637209,60,1,9.1,7,8.8,8.530885,30,4,s
130.621092,85,1,9.1,7.2,8.3,8.530885,29,6,l
131.200275,85,1,9.1,7.2,8.3,8.530885,29,10,l
92.638293,85,1,9.1,7.2,8.3,8.530885,29,4,l
6041.000624,80,1,7.9,6.88237,7.9,9,47,0,s
662.735642,85,1,7,6.88237,7,8.530885,34,0,s
4571.099375,80,3,9.2,6.88237,8.4,10,25,0,m
2176.258003,87,1,7,5.8,7,8.530885,15,0,s
33.651479,85,1,8.2,6.88237,8.2,8.530885,26.742663,39,l
17505.1282,85,1,8.3,6.88237,8.009683,9,22,14,s
182.212133,89,1,8.3,6.88237,8.009683,9,22,7,s
4958.2404,80,1,9,6.88237,8.5,7,22,0,l
68.426665,85,1,7.5,6.88237,7.5,7,30,0,s
247.795571,85,1,8.4,6.88237,8.5,8.530885,15,0,l
57.454345,83,3,7.8,6.88237,7.8,8.530885,26.742663,0,l
46.760184,83,3,7.5,6.88237,8.009683,9,20,7,m
471.405475,85,1,8.1,6.88237,8.3,9,45,62,s
3642.068594,81,1,8.1,7.1,8.1,8.530885,18,0,s
2578.891487,60,1,9.1,7,8.8,8.530885,30,0,m
56.145112,60,3,7.8,6.5,7.5,11,28,33,s
2577.592061,85,1,8.8,7,8,8,35,0,s
194.408849,82,1,7.5,6.88237,8.009683,8.530885,10,12,m
255.000705,89,1,8.2,7.6,7.9,8.530885,35,0,s
1114.956838,85,1,9.1,7.2,8.3,8.530885,29,0,s
1825.603605,81,1,8.1,6.88237,8.009683,9,19,0,s
9262.942195,81,1,8.8,7.2,8.5,9,22,7,s
2725.499726,60,1,9.1,7,8.8,8.530885,30,647,m
69.840892,83,3,7.5,6.88237,8.009683,9,20,15,m
5903.196344,80,1,8.2,6.88237,8.009683,6,7,0,s
175.632781,85,1,7.3,6.88237,8.009683,9,63,10,s
182.043764,89,1,8.3,6.88237,8.009683,9,22,6,m
10392.64122,87,1,8.1,6.88237,8.009683,9,19,5,s
12601.92629,80,1,8.2,6.88237,8.009683,8,25,0,s
187.835232,81,1,8.1,7.1,8.1,8.530885,18,10,l
2576.364401,89,1,8.2,6.88237,8.009683,9,47,7,s
126.679694,85,1,9.1,7.2,8.3,8.530885,29,7,m
7506.616113,81,3,8.6,6.88237,7.3,6,15,7,s
7939.861937,88,1,8.3,6.88237,8.3,11,40,6,m
180.328891,81,1,8.1,7.1,8.1,8.530885,18,1,m
194.60893,85,1,9.1,7.2,8.3,8.530885,29,12,l
6048.682694,80,1,8.2,6.88237,8.009683,6,7,0,s
140.959503,89,1,8.8,7.2,8.5,9,22,31,l
5981.485001,80,1,7.6,7,7.8,8.530885,17,0,s
657.618303,88,1,7.4,6.4,7.2,8.530885,23,0,s
6822.53734,88,1,9.1,7.2,8.3,8.530885,29,0,s
3164.470751,60,1,8.4,6.9,8.5,8.530885,34,0,s
5163.660736,71,1,8.1,6.88237,8.009683,8.530885,48,0,s
104.791276,85,1,9.1,7.2,8.3,8.530885,29,14,l
10990.01932,81,1,8.5,6.88237,8.5,11,25,0,s
38.691564,60,3,7.8,6.5,7.5,11,28,0,m
214.944953,85,1,6.4,6.88237,6.9,8.530885,20,7,s
705.023387,50,1,6.8,6.5,6.9,10,12,0,s
3700.23897,85,1,7.6,6.4,7.6,6,50,0,s
129.025783,82,1,8.1,6.8,7.9,8.530885,24,15,m
8318.195771,88,1,8.1,7.1,8.1,8.530885,18,0,s
2725.499726,85,1,7.5,6.88237,7.5,9,10,647,s
70.035955,82,1,7.6,6.5,7.8,8.530885,13,8,s
11612.68159,82,1,8.3,6.88237,8.009683,9,22,0,s
183.590411,89,1,8.3,6.88237,8.009683,9,22,8,m
187.81811,81,1,8.1,7.1,8.1,8.530885,18,15,l
17310.30081,87,1,8.1,6.88237,8.009683,8.530885,48,15,s
162.912758,85,1,6.7,6.1,6.3,8.530885,48,0,s
7256.738971,87,1,7.9,6.4,7.4,8,24,0,s
36.38705,83,1,7.9,6.3,7.6,6,24,18,m
133.997131,85,1,9.1,7.2,8.3,8.530885,29,10,l
9208.420644,88,1,9.5,6.88237,8.5,12,33,0,s
228.229761,85,1,9.1,7.2,8.3,8.530885,29,11,l
181.453266,89,1,8.3,6.88237,8.009683,9,22,22,s
181.43467,89,1,8.3,6.88237,8.009683,9,22,14,l
160.315628,82,1,8.1,6.8,7.9,8.530885,24,36,m
106.749963,85,1,8.3,6.9,8.1,8.530885,27,4,m
341.908026,89,1,8.3,6.88237,8.009683,9,22,0,s
118.685652,85,1,9.1,7.2,8.3,8.530885,29,5,m
813.636892,88,1,7.6,6.88237,8.009683,9,15,5,s
667.237172,81,1,7.7,6.7,8.009683,8.530885,167,0,s
5609.364981,74,1,8.5,6.88237,8.009683,11,26.742663,0,m
109.942115,86,1,8.3,6.5,7.8,8.530885,10,7,l
4531.164786,83,1,9.1,7.2,8.3,8.530885,29,0,s
10816.11631,80,1,9.5,6.88237,8.5,12,33,0,m
1132.367675,86,3,7.5,6.9,7.2,9,10,0,s
3729.814909,80,1,7.2,6.3,7.1,8,15,0,s
708.330853,85,1,7.8,6.8,7.7,8,24,6,s
35.449799,89,1,8.3,6.88237,8.009683,9,22,11,m
47.361055,85,1,8.3,6.88237,8.1,8.530885,15,72,m
179.662944,89,1,8.3,6.88237,8.009683,9,22,0,m
23.280212,50,1,7,6.88237,8.009683,8,21,4,s
780.111701,88,1,7.6,6.88237,8.009683,9,15,44,s
2005.880048,60,1,9.1,7,8.8,8.530885,30,10,m
927.733535,85,1,9.1,7.2,8.3,8.530885,29,95,s
206.782875,60,1,8.4,6.9,8.5,8.530885,34,10,m
115.497051,85,1,7.5,6.88237,8.009683,5,40,0,s
201.188527,81,1,8.1,7.1,8.1,8.530885,18,17,l
182.290716,89,1,8.3,6.88237,8.009683,9,22,10,m
96.153247,60,1,7.8,6.5,7.3,8.530885,20,5,l
242.392077,85,1,7,6.88237,8.009683,8.530885,40,0,s
330.40132,87,1,7.9,6.88237,8.009683,4,14,9,s
628.664376,85,1,9.1,7.2,8.3,8.530885,29,1,m
96.629005,85,1,9.1,7.2,8.3,8.530885,29,12,l
2725.499726,89,1,8.2,6.88237,8.4,11,25,647,s
79.629706,85,1,8.3,6.9,8.1,8.530885,27,6,m
4981.070918,80,1,8.8,7,8,8,35,0,s
16991.45044,85,1,9.5,6.88237,8.5,12,33,0,m
65.121277,85,1,6.9,6.88237,8.009683,8.530885,60,0,s
2221.080325,85,1,9,6.88237,8.5,7,22,0,m
102.157758,86,1,6.6,5.9,6.6,8.530885,6,0,s
2824.056421,85,1,7.8,7.1,8,9,59,69,s
25.521447,81,3,6.4,6.88237,6.8,8.530885,33,5,l
149.255236,85,1,8.3,6.88237,8.3,8.530885,26.742663,0,m
2725.499726,86,1,8.2,6.88237,8.3,8.530885,33,647,m
65.707978,83,3,7.5,6.88237,8.009683,9,20,18,l
4611.824635,85,1,8.6,6.88237,9.1,8.530885,33,0,s
3481.993906,80,3,8.6,6.88237,7.3,6,15,0,l
289.821198,85,1,8.2,6.88237,8.009683,6,7,5,m
684.346316,86,1,7.8,6.8,7.7,8,24,0,s
136.80426,84,1,6.8,6.3,7.3,8.530885,14,0,s
85.522976,85,1,6.9,6.88237,6.9,8.530885,30,19,s
505.03681,82,1,7.7,6.88237,8.009683,7,10,9,s
45.702794,89,1,8.8,7.2,8.5,9,22,11,l
30.337538,50,1,7,6.88237,8.009683,8,21,8,s
146.726091,85,1,9.1,7.2,8.3,8.530885,29,9,l
131.483576,85,1,9.1,7.2,8.3,8.530885,29,7,m
50.789247,60,1,7.8,6.5,7.3,8.530885,20,6,m
138.263067,89,1,8,6.6,7.3,7,46,0,s
111.420928,85,1,8.2,6.88237,8.2,8.530885,26.742663,17,m
210.600447,85,1,9.1,7.2,8.3,8.530885,29,8,l
293.14102,85,1,7.2,6.7,7,8.530885,14,0,s
165.189934,89,1,7.5,5.8,6.6,4,10,10,s
257.780963,85,1,9.1,7.2,8.3,8.530885,29,6,m
68.450139,83,3,7.5,6.88237,8.009683,9,20,5,m
246.07541,60,1,7.8,5.7,7.2,8.530885,18,8,l
4541.554399,81,1,8.1,6.88237,8.009683,9,19,0,s
13183.92132,89,1,9.1,7.2,8.3,8.530885,29,0,m
6268.63622,80,1,9.1,7.2,8.3,8.530885,29,0,s
11985.06917,89,1,7.9,6.4,7.4,8,24,0,s
116.70659,88,1,7.6,5.4,7.7,8.530885,30,6,l
178.638308,89,1,8.3,6.88237,8.009683,9,22,15,m
263.035422,85,1,9.1,7.2,8.3,8.530885,29,10,m
589.808539,86,1,8.3,6.5,7.8,8.530885,10,0,s
6326.270578,80,1,9.1,7.2,8.3,8.530885,29,8,m
128.069145,85,1,9.1,7.2,8.3,8.530885,29,8,m
238.468719,85,1,9.1,7.2,8.3,8.530885,29,9,l
17006.84579,85,1,9.5,6.88237,8.5,12,33,0,m
364.58086,85,1,5.6,6.88237,8.009683,8.530885,11,100,s
574.258935,60,1,9.1,7,8.8,8.530885,30,6,l
3647.150094,81,1,8.1,7.1,8.1,8.530885,18,0,s
810.729933,81,1,7.8,6.88237,7.8,7,26.742663,27,s
269.30979,85,1,9.1,7.2,8.3,8.530885,29,10,l
47.975613,85,1,7.7,6.8,7.7,8,44,69,s
4670.430306,85,1,7.9,6.3,7.9,6,48,67,s
52.511411,60,1,7.8,6.5,7.3,8.530885,20,10,l
17855.39746,85,1,9.5,6.88237,8.5,12,33,0,s
46.279258,82,1,8.1,6.8,7.9,8.530885,24,16,l
692.097008,85,3,7.5,6.9,7.2,9,10,12,s
425.270945,85,1,7.7,6.6,7.6,8,17,0,s
91.402799,85,1,9.1,7.2,8.3,8.530885,29,6,s
16968.64929,85,1,9.5,6.88237,8.5,12,33,0,m
16966.93761,85,1,9.5,6.88237,8.5,12,33,81,m
620.96203,60,1,9.1,7,8.8,8.530885,30,16,l
179.897443,88,1,6.9,6.88237,8.009683,5,10,0,s
66.598786,60,3,7.8,6.5,7.5,11,28,18,m
2725.499726,84,1,7.4,6.88237,7.4,9,6,647,s
57.267817,86,1,8.3,7.3,8.1,9,14,26,m
1617.289665,60,1,9.1,7,8.8,8.530885,30,6,l
40.899448,60,1,7.8,6.5,7.3,8.530885,20,6,m
85.290156,85,1,7.7,6.6,7.6,8,17,4,l
6577.933028,88,1,9,6.88237,8.5,7,22,0,s
176.58349,85,1,7.5,6.88237,7.5,9,10,8,m
6643.525917,88,1,8.3,6.5,7.8,8.530885,10,0,s
78.911071,85,1,6.9,6.4,6.7,10,44,0,s
1083.792565,85,1,7.1,6.4,6.9,8.530885,28,0,s
17009.331,85,1,9.5,6.88237,8.5,12,33,6,m
126.211209,85,1,9.1,7.2,8.3,8.530885,29,7,m
9539.295991,81,1,9.1,7.2,8.3,8.530885,29,9,m
2015.115493,60,1,9.1,7,8.8,8.530885,30,0,l
8189.612675,60,1,9.1,7,8.8,8.530885,30,0,s
181.740814,89,1,8.3,6.88237,8.009683,9,22,11,m
126.355765,85,1,9.1,7.2,8.3,8.530885,29,7,s
119.27601,85,1,9.1,7.2,8.3,8.530885,29,8,l
208.70517,88,1,7.3,6.88237,8.009683,8.530885,28,0,s
13004.1444,88,1,9.1,7,8.8,8.530885,30,0,s
265.314271,85,1,7.7,6.88237,8.009683,8.530885,40,0,s
141.448584,82,1,7.5,6.88237,8.009683,7,55,17,s
342.835548,85,1,8.2,6.88237,8.009683,6,7,0,m
160.496863,82,1,8.1,6.8,7.9,8.530885,24,18,m
30.575462,85,3,7.5,6.9,7.2,9,10,4,s
181.517081,89,1,8.3,6.88237,8.009683,9,22,16,s
4412.489165,60,1,9.1,7,8.8,8.530885,30,0,s
225.562687,85,1,9.1,7.2,8.3,8.530885,29,7,l
130.099804,85,1,9.1,7.2,8.3,8.530885,29,8,m
126.406871,85,1,9.1,7.2,8.3,8.530885,29,7,s
45.819289,85,1,8.1,6.88237,8.3,9,45,0,s
91.182889,85,1,9.1,7.2,8.3,8.530885,29,6,m
14326.16312,87,1,8.3,6.88237,8.009683,9,22,68,s
14699.11136,88,1,9.1,7,8.8,8.530885,30,0,s
6295.220121,60,1,9.1,7,8.8,8.530885,30,7,s
2725.499726,60,1,9.1,7,8.8,8.530885,30,647,m
96.726696,85,1,9.1,7.2,8.3,8.530885,29,14,m
446.032087,85,1,7.7,6.8,7.7,8,44,4,s
52.305498,50,3,7,6.88237,7.2,11,40,8,l
2673.125042,87,1,9.1,7.2,8.3,8.530885,29,23.263212,s
17076.87656,85,1,9.5,6.88237,8.5,12,33,8,s
659.68948,85,1,8.2,6.88237,7.8,9,30,0,s
683.880017,85,1,5.5,5.5,5.5,8.530885,41,0,s
4752.519922,60,1,8.6,7.2,8.4,8.530885,30,8,s
208.588891,81,1,8.1,7.1,8.1,8.530885,18,33,m
93.665652,85,1,9.1,7.2,8.3,8.530885,29,10,l
9551.088418,82,1,7.7,6.5,7.5,8.530885,14,0,s
12981.07466,88,1,9.1,7.2,8.3,8.530885,29,23.263212,s
181.679679,89,1,8.3,6.88237,8.009683,9,22,13,m
1771.574157,60,1,9.1,7,8.8,8.530885,30,2,l
64.285744,85,3,7.5,6.9,7.2,9,10,11,l
116.26424,85,1,6.5,6,6.6,8.530885,10,0,s
181.522382,89,1,8.3,6.88237,8.009683,9,22,17,m
316.48263,85,1,8.4,6.88237,8.5,8.530885,15,0,l
13165.41588,89,1,9.1,7.2,8.3,8.530885,29,8,m
1981.611129,88,1,7.6,6.88237,8.009683,8,33,8,s
75.24179,89,1,8.3,6.88237,8.009683,9,22,4,m
404.604046,85,1,8.4,6.88237,8.4,8.530885,26.742663,0,l
92.34402,86,1,7.7,6.5,7.7,8,48,27,s
2725.499726,85,1,8.3,6.88237,8.1,8.530885,15,647,m
226.863805,85,1,7.5,6.88237,7.5,8.530885,20,45,s
24.166672,50,1,7,6.88237,8.009683,8,21,7,s
2546.4313,85,1,7.8,7.1,8,9,59,9,s
520.751157,85,1,6.6,5.8,6.4,8.530885,28,72,s
94.579057,89,1,8.2,6.88237,8.009683,8,25,13,m
5319.88015,88,1,8.2,6.88237,8.009683,8,25,0,s
107.353261,85,1,9.1,7.2,8.3,8.530885,29,7,m
10638.4832,80,1,9.5,6.88237,8.5,12,33,35,l
1737.096629,60,1,9.1,7,8.8,8.530885,30,6,m
166.60972,85,1,8.3,6.88237,8.1,8.530885,15,0,m
179.473706,81,1,8.1,7.1,8.1,8.530885,18,10,m
389.844383,85,1,7.8,6.8,7.7,8,24,4,s
13939.45309,85,1,8.1,6.4,7.7,9,23,69,s
131.820039,85,1,9.1,7.2,8.3,8.530885,29,7,s
10317.71079,89,1,7.6,7,7.8,8.530885,17,67,s
1963.800669,82,1,6.4,6.88237,8.009683,8.530885,11,0,s
181.542436,89,1,8.3,6.88237,8.009683,9,22,20,m
565.813637,85,1,9.1,7.2,8.3,8.530885,29,5,s
7826.136134,88,1,8.1,7.1,8.1,8.530885,18,10,s
7153.25164,88,1,9.1,7.2,8.3,8.530885,29,0,s
17035.99852,85,1,9.5,6.88237,8.5,12,33,0,s
182.040628,89,1,8.3,6.88237,8.009683,9,22,4,m
312.884546,82,1,7.5,6.88237,8.009683,8.530885,10,0,s
8760.035859,88,1,7.2,7.2,7.2,4,65,5,s
181.473684,89,1,8.3,6.88237,8.009683,9,22,15,m
255.914701,85,1,9.1,7.2,8.3,8.530885,29,8,l
296.547283,85,1,9.1,7.2,8.3,8.530885,29,9,l
134.107026,85,1,8.2,6.88237,8.009683,6,7,0,m
302.533253,89,1,8.8,7.2,8.5,9,22,17,m
181.269454,89,1,8.3,6.88237,8.009683,9,22,14,l
121.010259,85,1,8.3,6.9,8.1,8.530885,27,1,m
4979.777913,81,1,8,6.6,7.4,8.530885,33,0,s
94.403523,85,1,9.1,7.2,8.3,8.530885,29,12,m
655.6413,81,1,8.1,7.1,8.1,8.530885,18,8,m
6088.310568,80,1,8.3,6.88237,7.6,8.530885,26.742663,0,l
3957.867617,80,1,8.2,6.88237,8.009683,8,32,11,s
257.771832,85,1,9.1,7.2,8.3,8.530885,29,7,m
3232.471966,85,1,8.7,7.7,7.8,6,30,69,s
322.243058,60,1,7.7,6.1,7.2,8.530885,20,6,l
164.292658,81,1,7.4,6.4,7.5,8.530885,33,0,s
101.638723,85,1,9.1,7.2,8.3,8.530885,29,14,l
3834.234399,73,3,7.2,6.88237,8.009683,6,10,0,s
461.13134,85,1,9.1,7.2,8.3,8.530885,29,7,m
47.596961,89,1,8.8,7.2,8.5,9,22,14,l
39.128374,60,1,7.8,6.5,7.3,8.530885,20,6,l
18302.48456,84,1,8.8,7.2,8.5,9,22,0,s
1110.204111,87,3,9.2,6.88237,8.4,10,25,0,s
5971.631505,60,1,9.1,7,8.8,8.530885,30,17,m
5.77312,50,3,6.5,6.1,6.5,7,14,96,s
153.059644,85,1,8.3,6.88237,8.1,8.530885,15,0,s
181.613417,89,1,8.3,6.88237,8.009683,9,22,15,m
1542.430424,85,1,8.8,7,8,8,35,0,s
857.128863,86,1,8.3,6.5,7.8,8.530885,10,0,s
350.093171,85,1,7.5,6.88237,7.5,8.530885,20,0,s
9.178643,82,1,7.6,6.5,7.8,8.530885,13,3,s
146.466165,86,1,8.2,6.88237,7.8,9,30,0,s
12136.07685,81,3,9.2,6.88237,8.4,10,25,0,s
14.925066,85,3,7.5,6.9,7.2,9,10,5,m
277.379926,85,1,8.3,6.88237,7.6,8.530885,26.742663,37,l
1795.888751,60,1,9.1,7,8.8,8.530885,30,6,l
10692.91092,80,1,9.5,6.88237,8.5,12,33,79,m
52.998731,50,1,7,6.88237,8.009683,8,21,6,m
8455.320399,85,1,8.1,6.88237,8.009683,9,19,7,s
145.20481,89,1,8.8,7.2,8.5,9,22,14,l
574.647611,82,1,7.7,6.88237,8.009683,7,10,3,s
9060.158708,88,1,8.8,7.2,8.5,9,22,23.263212,s
4877.032462,81,1,8.6,6.88237,9.1,8.530885,33,0,s
10702.02254,80,1,9.5,6.88237,8.5,12,33,348,m
4945.213653,85,1,7.9,6.6,7.9,8,49,0,s
1771.694766,60,1,9.1,7,8.8,8.530885,30,7,m
1008.675062,85,1,8.3,6.88237,8.1,8.530885,15,233,s
208.452515,85,1,8.2,6.88237,8.009683,6,7,11,s
489.905874,85,1,6.9,6.6,6.9,8.530885,48,0,s
17024.72177,85,1,9.5,6.88237,8.5,12,33,0,m
268.638456,85,1,8.2,6.88237,8.009683,6,7,8,m
61.857416,86,1,6.2,5.3,6.2,8.530885,5,9,s
77.070732,85,1,7.6,6.88237,7.6,8.530885,30,0,s
3372.565983,81,1,7.5,6.4,7.3,8.530885,33,36,s
887.033766,85,1,8.5,7.7,8.1,9,13,0,s
64.179836,83,3,7.5,6.88237,8.009683,9,20,12,m
131.162056,85,1,9.1,7.2,8.3,8.530885,29,6,m
189.348898,85,1,9.1,7.2,8.3,8.530885,29,6,l
2725.499726,85,1,8.3,6.88237,8.1,8.530885,15,647,m
6993.153402,88,1,7.8,6.88237,7.8,8.530885,60,12,s
277.732499,85,1,9.1,7.2,8.3,8.530885,29,13,l
1356.298342,87,1,5.9,6.88237,8.009683,8.530885,150,8,s
2146.693782,71,1,8.1,6.88237,8.009683,8.530885,48,0,s
9144.46884,88,1,8.8,7.2,8.5,9,22,7,s
8745.012572,88,1,7.2,7.2,7.2,4,65,0,s
16984.50898,85,1,9.5,6.88237,8.5,12,33,0,m
5178.095288,88,1,8.8,7.2,8.5,9,22,3,s
3128.922393,85,1,7.6,6.88237,8.009683,7,32,0,s
10.740401,84,1,7.1,6.1,7.1,8.530885,32,15,m
39.954736,82,3,7,5.8,7.1,8.530885,25,12,l
3576.33285,89,1,8.8,7.2,8.5,9,22,5,m
146.216189,85,1,7.8,6.8,7.7,8,24,0,s
990.656532,60,1,9.1,7,8.8,8.530885,30,16,m
182.53723,89,1,8.3,6.88237,8.009683,9,22,8,m
386.685922,89,1,8.8,7.2,8.5,9,22,10,m
183.839357,89,1,8.3,6.88237,8.009683,9,22,6,s
134.480776,85,1,9.1,7.2,8.3,8.530885,29,6,m
285.969947,85,1,9.1,7.2,8.3,8.530885,29,8,l
4500.101568,80,3,9.2,6.88237,8.4,10,25,0,m
96.737481,85,1,9.1,7.2,8.3,8.530885,29,8,l
99.428585,85,1,8.3,6.9,8.1,8.530885,27,5,m
6516.915456,85,1,7.5,6.4,7.3,8.530885,33,6,s
122.241916,85,1,9.1,7.2,8.3,8.530885,29,7,m
248.894121,85,1,9.1,7.2,8.3,8.530885,29,5,l
47.51054,85,1,8.1,6.88237,8.3,9,45,0,m
75.233742,85,3,7.5,6.9,7.2,9,10,6,s
247.52374,60,1,7.8,5.7,7.2,8.530885,18,7,l
4953.083904,80,1,9,6.88237,8.5,7,22,68,m
127.344719,85,1,9.1,7.2,8.3,8.530885,29,9,m
598.440731,85,1,6.4,6.88237,8.009683,8.530885,11,0,s
2351.250698,85,1,7.6,6.4,7.6,6,50,0,s
15319.42558,81,1,8.1,6.88237,7.5,9,38,18,s
26.056386,85,1,7.9,6.88237,7.9,8.530885,35,12,m
575.673594,60,3,7.7,6.88237,8.009683,4,15,0,s
181.580782,89,1,8.3,6.88237,8.009683,9,22,20,l
231.828649,85,1,9.1,7.2,8.3,8.530885,29,10,l
10645.09725,80,1,9.5,6.88237,8.5,12,33,0,m
16582.46128,85,1,8,6.6,7.3,7,46,69,s
5207.761893,88,1,8.6,6.88237,9.1,8.530885,33,5,s
2372.944461,85,1,8.3,6.5,7.8,8.530885,10,0,s
127.908272,85,1,9.1,7.2,8.3,8.530885,29,6,m
243.001089,89,1,8.3,6.88237,8.009683,9,22,2,s
94.298108,85,1,9.1,7.2,8.3,8.530885,29,7,l
477.615145,85,1,7.2,6,7.2,8.530885,44,0,s
183.978417,89,1,8.2,6.88237,8.009683,8,25,13,m
1634.1951,85,1,8.3,6.88237,8.009683,10,40,72,s
62.296512,85,1,7.9,6.88237,7.9,8.530885,35,30,l
6002.490656,88,1,9,6.88237,8.5,7,22,0,s
4415.319505,80,3,9.2,6.88237,8.4,10,25,2,s
91.01126,85,1,9.1,7.2,8.3,8.530885,29,0,m
7355.868646,88,1,9.1,7.2,8.3,8.530885,29,0,s
288.470001,85,1,8.3,6.88237,7.6,8.530885,26.742663,10,m
181.721626,81,1,8.1,7.1,8.1,8.530885,18,0,m
17427.96568,85,1,9.5,6.88237,8.5,12,33,0,s
54.412692,85,1,8.1,6.88237,8.3,9,45,0,m
13.282272,85,3,7.5,6.9,7.2,9,10,8,m
7658.814473,88,1,8.5,6.88237,8.5,11,25,0,s
1413.701355,81,1,7.4,6.88237,8.009683,8.530885,10,115,s
97.751518,85,1,9.1,7.2,8.3,8.530885,29,7,m
60.755403,82,1,8.1,6.8,7.9,8.530885,24,18,l
10236.12875,88,1,9.5,6.88237,8.5,12,33,0,m
181.543314,89,1,8.3,6.88237,8.009683,9,22,18,m
3895.237542,80,1,8.6,6.88237,9.1,8.530885,33,0,l
24.988118,85,3,7.5,6.9,7.2,9,10,0,s
65.130198,83,3,7.5,6.88237,8.009683,9,20,22,l
114.168256,85,1,7.2,6,7.2,8.530885,44,0,s
292.270994,85,1,9.1,7.2,8.3,8.530885,29,8,l
9320.688209,88,1,7.6,6.4,7.3,8.530885,45,33,s
447.239569,85,1,8.5,7.7,8.1,9,13,15,s
130.13069,85,1,9.1,7.2,8.3,8.530885,29,7,m
187.833967,81,1,8.1,7.1,8.1,8.530885,18,7,s
338.303273,85,1,8.2,6.88237,8.009683,6,7,5,s
96.127403,85,1,9.1,7.2,8.3,8.530885,29,9,l
195.174678,85,1,9.1,7.2,8.3,8.530885,29,13,l
4899.316744,60,1,9.1,7,8.8,8.530885,30,1,m
2643.733266,88,3,9.2,6.88237,8.4,10,25,0,m
182.653795,89,1,8.3,6.88237,8.009683,9,22,18,s
9560.089114,88,1,8.2,6.88237,8.009683,6,7,2,s
855.791925,87,1,7.8,6.88237,8.009683,8.530885,19,23.263212,s
69.535452,83,3,7.5,6.88237,8.009683,9,20,11,l
59.473798,60,1,7.8,6.5,7.3,8.530885,20,15,l
3285.840304,85,1,7.6,6.88237,7.6,8.530885,25,34,s
87.848506,85,1,7.7,6.6,7.6,8,17,0,l
166.490514,81,1,8.1,7.1,8.1,8.530885,18,8,l
615.45685,85,1,9.1,7.2,8.3,8.530885,29,7,s
419.948382,85,1,8.3,6.88237,8.1,8.530885,15,0,m
118.34075,85,1,7,6.88237,7,8.530885,34,0,s
127.467523,85,1,9.1,7.2,8.3,8.530885,29,8,m
2663.579871,89,1,7.5,5.8,6.6,4,10,20,s
83.660595,82,1,7.6,6.5,7.8,8.530885,13,0,m
13302.22238,89,1,9.1,7.2,8.3,8.530885,29,8,m
73.095747,85,1,8.1,6.88237,8.3,9,45,10,s
12408.80997,88,1,8.1,6.88237,8.3,9,45,0,s
2013.70607,81,1,8.1,6.88237,8.009683,9,19,0,s
133.849512,85,1,9.1,7.2,8.3,8.530885,29,7,m
137.443407,83,1,8,6.88237,8,8.530885,70,9,m
3880.275333,80,1,8.6,6.88237,9.1,8.530885,33,49,l
1112.002242,85,1,7.9,6.6,7.9,5,33,0,s
10.991315,84,1,6.7,6.3,6.6,8,11,10,m
124.89182,50,3,7,6.88237,7.2,11,40,0,m
130.486857,85,1,9.1,7.2,8.3,8.530885,29,6,m
477.776896,85,1,9.1,7.2,8.3,8.530885,29,3,s
51.515403,83,3,7.5,6.88237,8.009683,9,20,0,m
3701.720763,85,1,7.3,6.88237,7.3,8.530885,36,0,s
6403.349798,81,1,8,6.6,7.4,8.530885,33,5,s
2261.204985,60,1,8.6,7.4,8.5,8.530885,20,0,s
127.030738,85,1,9.1,7.2,8.3,8.530885,29,7,m
15347.74842,89,1,9.1,7.2,8.3,8.530885,29,0,m
186.881222,81,1,8.1,7.1,8.1,8.530885,18,11,l
6155.696208,80,1,7.9,6.88237,7.9,9,47,0,s
38.977775,60,1,7.8,6.5,7.3,8.530885,20,10,l
133.048548,85,1,9.1,7.2,8.3,8.530885,29,6,m
5581.052994,88,1,8.8,7,8,8,35,0,s
7348.751545,81,1,8.8,7.2,8.5,9,22,6,m
184.139241,89,1,8.3,6.88237,8.009683,9,22,0,s
130.770383,85,1,9.1,7.2,8.3,8.530885,29,8,m
14169.3628,80,1,8.1,6.88237,8.009683,8.530885,48,0,s
4817.92234,85,3,9.2,6.88237,8.4,10,25,38,s
161.370045,89,1,8.3,6.88237,8.009683,9,22,0,m
1617.378837,60,1,9.1,7,8.8,8.530885,30,6,l
5243.154761,80,1,8.5,7.7,8.1,9,13,47,s
1733.138403,60,1,9.1,7,8.8,8.530885,30,9,m
15493.94896,86,1,9.5,6.88237,8.5,12,33,20,m
275.151256,85,1,7.5,6.4,7.3,8.530885,33,18,s
252.195888,89,1,8.8,7.2,8.5,9,22,9,l
110.949813,85,1,7.5,6.88237,7.5,7,30,127,s
187.329729,85,1,7.5,6.88237,8.009683,5,40,0,m
2725.499726,84,1,7.1,6.4,7.4,8.530885,33,647,s
7875.128814,81,1,9,6.88237,8.5,7,22,13,m
1081.620196,81,1,8.1,6.88237,8.009683,9,19,12,s
4594.050061,60,1,9.1,7,8.8,8.530885,30,0,m
63.60267,85,3,7.5,6.9,7.2,9,10,4,m
13.536479,50,1,8.30368,6.88237,8.009683,10,26.742663,4,m
2636.948271,85,1,7.5,6.5,7.5,4,11,69,s
92.159765,85,1,9.1,7.2,8.3,8.530885,29,6,l
2725.499726,85,1,8.1,6.88237,8,8.530885,30,647,l
7504.016497,60,1,8.1,6.88237,8.009683,8.530885,48,2,s
1229.484521,84,1,7.7,6.6,7.6,8,17,10,s
224.416477,87,1,7.3,6.9,8.009683,8.530885,52,0,s
348.816016,85,1,6.9,6.88237,8.009683,8,9,0,s
163.736601,86,1,7.7,6.88237,7.3,10,51,0,s
360.314372,85,1,7.2,6.7,7,8.530885,14,7,s
516.100914,86,1,7.7,6.6,7.6,8,17,155,s
17947.76055,85,1,8.2,7.6,7.9,8.530885,35,11,s
1772.81875,60,1,9.1,7,8.8,8.530885,30,9,l
1493.919873,73,1,8.5,6.88237,8.009683,11,26.742663,0,m
790.749685,60,1,9.1,7,8.8,8.530885,30,4,m
6529.760296,83,1,8.8,7,8,8,35,4,s
3630.00676,80,3,8.6,6.88237,7.3,6,15,72,l
12940.76475,88,1,7.6,6.88237,7.6,9,26.742663,0,s
143.886619,84,1,8,6.4,7.9,6,33,16,l
191.19054,60,1,7.7,6.1,7.2,8.530885,20,11,l
1717.330396,60,1,9.1,7,8.8,8.530885,30,10,l
98.340788,86,1,8.3,6.5,7.8,8.530885,10,0,l
61.658263,89,1,8,6.7,7.9,8,39,0,m
250.615519,85,1,9.1,7.2,8.3,8.530885,29,13,l
1489.076087,89,1,8.2,6.88237,8.009683,8,25,0,s
69.551346,83,3,7.5,6.88237,8.009683,9,20,10,m
7807.868016,85,1,8.1,7.1,8.1,8.530885,18,0,s
18225.28765,71,1,9.1,7.2,8.3,8.530885,29,0,s
274.037466,85,1,9.1,7.2,8.3,8.530885,29,9,l
182.150667,89,1,8.3,6.88237,8.009683,9,22,0,l
67.697294,60,1,7.8,6.5,7.3,8.530885,20,0,m
212.020438,85,1,8.3,6.9,8.1,8.530885,27,0,s
50.948611,86,1,8.3,7.3,8.1,9,14,0,l
12165.34255,81,1,8,6.6,7.4,8.530885,33,10,s
3742.694597,80,3,8.6,6.88237,7.3,6,15,49,l
12487.03908,89,1,7.9,6.4,7.4,8,24,0,s
11668.6549,80,1,9.5,6.88237,8.5,12,33,3,s
58.351335,88,1,7.7,6.5,7.5,8.530885,14,8,l
16983.32898,85,1,9.5,6.88237,8.5,12,33,22,l
386.955535,85,1,7.4,6.2,7.1,8.530885,10,0,s
169.177045,85,1,8.2,6.88237,8.009683,6,7,110,m
186.096793,85,1,7.6,6.88237,7.3,8.530885,74,0,s
278.190351,87,1,8.2,6.88237,8.009683,8,32,9,s
5157.075305,80,1,7.5,6.88237,7.3,8.530885,35,0,s
216.903963,85,1,8.3,6.88237,8.1,8.530885,15,6,s
60.952574,85,3,7.5,6.9,7.2,9,10,3,m
116.895071,88,1,7.3,6.88237,8.009683,8.530885,28,5,m
59.773761,85,1,8.1,6.88237,8.3,9,45,27,m
7139.810181,82,1,9.1,7.2,8.3,8.530885,29,0,s
16437.71036,85,1,8.2,7.6,7.9,8.530885,35,0,s
170.935175,86,1,8.2,6.88237,7.8,9,30,27,s
269.593623,85,1,9.1,7.2,8.3,8.530885,29,26,m
17.367098,84,1,7.1,6.1,7.1,8.530885,32,7,m
7390.732416,81,1,8.8,7.2,8.5,9,22,0,m
16.130842,85,3,7.5,6.9,7.2,9,10,5,m
3483.733764,84,1,9.1,7.2,8.3,8.530885,29,0,s
591.277693,82,1,7,6.88237,8.009683,4,10,0,s
120.222126,85,1,8.3,6.88237,8.1,8.530885,15,129,m
67.26785,60,1,7.8,6.5,7.3,8.530885,20,7,l
3519.037328,80,3,8.6,6.88237,7.3,6,15,24,l
96.519288,85,1,9.1,7.2,8.3,8.530885,29,9,l
44.554878,89,1,8.8,7.2,8.5,9,22,24,l
11774.07625,87,1,8.8,7.2,8.5,9,22,3,s
8148.404678,81,1,7.9,6.88237,8.009683,4,14,5,s
197.011177,89,1,8.8,7.2,8.5,9,22,22,l
5349.587702,80,1,9,6.88237,8.5,7,22,0,s
130.182771,85,1,9.1,7.2,8.3,8.530885,29,8,m
586.093304,85,1,8.3,7.3,8.1,9,14,0,s
834.712031,85,1,9.1,7.2,8.3,8.530885,29,0,s
0.33204,74,1,8.30368,6.88237,8.009683,8.530885,26.742663,5,s
56.72233,60,1,9.1,7,8.8,8.530885,30,8,l
9000.573568,81,1,8.8,7.2,8.5,9,22,7,s
564.480108,86,1,7.6,6.5,7.6,6,33,7,s
18.906612,82,1,7.1,6.4,7.1,8.530885,25,18,l
93.352499,85,1,9.1,7.2,8.3,8.530885,29,15,l
7224.518046,88,1,9.1,7.2,8.3,8.530885,29,4,s
262.485174,60,1,9.1,7,8.8,8.530885,30,10,l
128.604481,85,1,9.1,7.2,8.3,8.530885,29,8,l
92.583247,85,3,7.5,6.9,7.2,9,10,8,l
2725.499726,85,1,8.2,6.88237,8.009683,6,7,647,m
179.697227,89,1,8.3,6.88237,8.009683,9,22,0,m
181.450625,89,1,8.3,6.88237,8.009683,9,22,17,s
40.758848,60,3,7.8,6.5,7.5,11,28,4,m
181.525948,89,1,8.3,6.88237,8.009683,9,22,15,m
182.29884,89,1,8.3,6.88237,8.009683,9,22,12,m
3946.61943,88,3,7.7,6,7.2,9,2,0,m
17592.74935,85,1,9.5,6.88237,8.5,12,33,0,s
3510.083942,80,1,8,6.4,7.7,6,19,0,s
15.538762,84,1,7.1,6.1,7.1,8.530885,32,0,s
7.204145,85,3,7.5,6.9,7.2,9,10,0,m
48.085585,85,1,8.3,6.88237,8.1,8.530885,15,0,m
9011.456855,89,1,8.1,6.88237,8.009683,9,19,0,s
2018.169576,60,1,9.1,7,8.8,8.530885,30,8,l
2315.628359,85,1,9.1,7.2,8.3,8.530885,29,8,s
146.074298,85,1,8.3,6.88237,8.1,8.530885,15,81,l
9094.825278,88,1,8.8,7.2,8.5,9,22,0,s
181.344156,89,1,8.3,6.88237,8.009683,9,22,15,s
167.465792,81,1,8.1,7.1,8.1,8.530885,18,19,l
8151.851572,82,1,9.1,7,8.8,8.530885,30,0,s
68.732005,82,1,8.1,6.8,7.9,8.530885,24,9,l
16969.40497,85,1,9.5,6.88237,8.5,12,33,0,m
105.379499,85,1,9.1,7.2,8.3,8.530885,29,9,l
1061.143199,85,1,8.3,6.88237,8.009683,10,40,0,s
6724.856824,80,1,7.3,6.6,7.4,8.530885,24,11,s
95.2661,85,1,9.1,7.2,8.3,8.530885,29,5,l
2.000949,50,3,7,6.88237,7.2,11,40,0,m
3567.174459,80,3,8.6,6.88237,7.3,6,15,0,l
219.993768,85,1,7.5,6.88237,7.5,8.530885,20,0,s
267.736408,85,1,9.1,7.2,8.3,8.530885,29,5,m
18.32037,89,1,8.3,6.88237,8.009683,9,22,13,m
323.955803,85,1,9.1,7.2,8.3,8.530885,29,7,m
9411.89917,81,1,9.1,7.2,8.3,8.530885,29,11,m
741.782773,84,3,7.5,6.9,7.2,9,10,10,s
89.949737,85,1,8.3,6.88237,8.1,8.530885,15,0,m
18.813047,81,1,8,6.88237,8,8.530885,33,27,m
869.648386,50,1,6.8,6.5,6.9,10,12,2,s
258.49236,60,1,9.1,7,8.8,8.530885,30,10,l
69.418002,83,3,7.5,6.88237,8.009683,9,20,9,m
5953.67679,80,1,8,6.88237,8,8.530885,26.742663,0,s
963.404743,86,1,7.5,6.88237,8.009683,5,40,28,s
96.865694,83,1,7,6.88237,7,8.530885,26.742663,10,s
52.155023,74,1,7.6,6.3,7.4,10,10,13,s
10408.48697,80,1,7.6,6.5,7.3,6,62,11,s
3898.659234,85,1,8.7,7.7,7.8,6,30,67,s
14548.60622,89,1,8.3,6.5,7.8,8.530885,10,67,s
100.708606,85,1,9.1,7.2,8.3,8.530885,29,7,m
930.728421,81,1,8.1,7.1,8.1,8.530885,18,23.263212,s
6240.657562,80,1,9.1,7.2,8.3,8.530885,29,14,m
97.667445,85,1,9.1,7.2,8.3,8.530885,29,6,l
2384.344274,89,1,8.2,6.88237,8.009683,9,47,0,s
6275.272626,80,1,9.1,7.2,8.3,8.530885,29,12,m
96.081275,60,1,7.8,6.5,7.3,8.530885,20,9,m
160.388937,85,1,8.3,6.88237,8.1,8.530885,15,0,m
20.769729,80,1,6.7,6.2,6.6,8,39,5,s
181.581298,89,1,8.3,6.88237,8.009683,9,22,19,m
218.756055,85,1,9.1,7.2,8.3,8.530885,29,7,l
7290.468203,81,3,8.6,6.88237,7.3,6,15,10,l
189.908015,85,1,6.7,6,6.6,8.530885,49,0,s
4747.712595,85,1,7.9,6.88237,7.9,9,47,0,s
637.980529,82,1,7.6,6.88237,8.009683,8.530885,23,23.263212,s
200.875361,60,1,7.7,6.1,7.2,8.530885,20,11,m
118.821101,60,3,7.8,6.5,7.5,11,28,20,l
13301.97452,89,1,9.1,7.2,8.3,8.530885,29,0,s
2006.734403,89,1,7.1,6.1,6.9,8.530885,21,15,s
3487.573791,88,3,8.6,6.88237,7.3,6,15,0,m
1061.542154,85,1,9.1,7.2,8.3,8.530885,29,0,s
18034.1049,88,1,9.1,7,8.8,8.530885,30,0,s
183.006179,89,1,8.3,6.88237,8.009683,9,22,11,s
17058.3992,85,1,9.5,6.88237,8.5,12,33,21,s
258.243686,85,1,9.1,7.2,8.3,8.530885,29,0,m
48.22404,85,1,6.9,6.88237,6.9,8.530885,26.742663,267,m
17561.02887,85,1,8.4,6.7,8.2,8,33,12,s
1811.324723,60,1,9.1,7,8.8,8.530885,30,10,l
332.891452,84,1,8.6,6.88237,8.6,7,33,6,m
631.524849,85,1,7.8,6.8,7.7,8,24,135,m
2725.499726,85,3,7.6,6.88237,7.3,8.530885,10,647,s
1539.928218,85,1,8.2,6.88237,7.8,9,30,0,s
657.035405,82,1,7.7,6.88237,8.009683,8.530885,37,12,s
16692.75284,89,1,9.1,7.2,8.3,8.530885,29,0,m
181.561942,89,1,8.3,6.88237,8.009683,9,22,12,m
3056.074013,60,1,8.2,6.88237,7.8,8.530885,50,0,s
933.966026,82,1,6.9,6.88237,8.009683,7,20,23.263212,s
92.12461,85,1,9.1,7.2,8.3,8.530885,29,7,s
1774.308135,60,1,9.1,7,8.8,8.530885,30,0,l
181.593318,89,1,8.3,6.88237,8.009683,9,22,17,m
10982.30299,80,1,9.5,6.88237,8.5,12,33,0,m
144.583702,85,1,8.3,6.9,8.1,8.530885,27,0,m
9241.362506,88,1,7.9,6.4,7.4,8,24,0,s
11837.15867,81,3,9.2,6.88237,8.4,10,25,0,s
2725.499726,85,1,8.5,6.88237,8.009683,10,60,647,m
3776.357327,80,1,8.6,6.88237,9.1,8.530885,33,0,l
45.617772,60,1,7.8,6.5,7.3,8.530885,20,6,m
57.333161,86,1,7.1,6.7,7.1,9,11,0,s
13787.74058,85,1,8.1,6.4,7.7,9,23,8,s
1688.579656,60,1,9.1,7,8.8,8.530885,30,6,l
181.640181,89,1,8.8,7.2,8.5,9,22,25,l
2725.499726,85,5,6.4,6.88237,6.4,8.530885,26.742663,647,m
6372.78341,83,1,8.8,7,8,8,35,168,s
1841.682368,60,1,9.1,7,8.8,8.530885,30,5,m
220.177229,85,1,7.8,6.4,7.5,9,27,0,s
64.251384,85,3,7.5,6.9,7.2,9,10,7,s
287.158869,82,1,7.6,6.4,7.3,8.530885,45,0,s
2725.499726,85,1,8.3,6.88237,8.1,8.530885,15,647,m
1440.705844,89,1,8,6.7,7.8,8,40,0,s
86.3813,85,1,8.3,6.88237,8.3,8.530885,26.742663,12,l
4.32691,85,3,7.5,6.9,7.2,9,10,8,m
2725.499726,85,1,7.9,6.88237,7.9,8.530885,35,647,m
17729.61824,85,1,9.5,6.88237,8.5,12,33,10,s
14868.50058,88,1,8.1,6.88237,8.009683,8.530885,48,41,s
47.40096,85,1,7,6.4,6.7,8.530885,39,0,s
8108.012497,73,1,8.6,8,8.6,11,33,0,s
161.098702,89,1,8.3,6.88237,8.009683,9,22,12,m
2080.457264,85,1,9,6.88237,8.5,7,22,144,m
7726.402246,88,1,8.3,6.88237,7.6,8.530885,26.742663,6,s
44.734092,82,1,8.1,6.8,7.9,8.530885,24,7,m
417.524179,85,1,9.1,7.2,8.3,8.530885,29,4,l
2482.838548,60,1,9.1,7,8.8,8.530885,30,7,m
12.270119,88,3,7.9,6.88237,7.8,11,20,0,s
804.743044,87,3,8.6,6.88237,7.3,6,15,11,s
279.990317,82,1,7,6.88237,8.009683,6,10,0,s
4975.747771,80,1,9,6.88237,8.5,7,22,0,m
1081.550276,89,1,8,6.6,7.3,7,46,0,s
10422.57284,81,1,8,6.6,7.3,7,46,0,s
132.34858,89,1,8.8,7.2,8.5,9,22,5,m
7926.985246,88,1,9.1,7.2,8.3,8.530885,29,8,s
63.738123,84,1,6.3,6.88237,6.3,9,26.742663,2376,m
2522.147073,60,1,9.1,7,8.8,8.530885,30,6,m
231.068433,85,1,8.4,6.88237,8.5,8.530885,15,0,l
9382.02165,81,1,9.1,7.2,8.3,8.530885,29,17,s
370.201461,85,1,7.1,6.4,6.9,8.530885,28,10,s
175.572113,89,1,8.8,7.2,8.5,9,22,12,l
1282.855996,89,1,8.3,6.88237,8.3,11,40,62,s
47.048396,89,1,8.8,7.2,8.5,9,22,16,l
8550.89756,88,1,8.6,6.88237,9.1,8.530885,33,0,s
281.04303,89,1,8.2,6.88237,8.009683,8,25,0,s
65.178971,85,1,8.3,6.9,8.1,8.530885,27,0,s
171.038529,85,1,7.2,6,7.2,8.530885,44,0,s
9220.7054,89,1,8.1,6.88237,8.009683,9,19,0,s
149.940417,85,1,9.1,7.2,8.3,8.530885,29,7,l
771.526523,85,1,9.1,7.2,8.3,8.530885,29,62,s
290.008962,50,3,7.1,6.5,7.7,10,10,35,s
120.044299,85,1,9.1,7.2,8.3,8.530885,29,8,l
6475.910671,85,3,7.7,6,7.2,9,2,0,s
10748.31575,81,1,8.5,6.88237,8.5,11,25,9,m
968.556926,85,1,8.2,6.88237,8.009683,6,7,67,s
181.352006,89,1,8.3,6.88237,8.009683,9,22,15,s
24.499499,86,1,6.2,5.3,6.2,8.530885,5,47,s
218.562707,60,1,7.8,7,7.9,8.530885,31,0,s
11602.41946,82,1,8.3,6.88237,8.009683,9,22,0,s
104.889947,83,3,8.2,6.5,8.1,9,33,0,m
10273.15423,87,1,8.4,6.7,8.2,8,33,14,s
661.662007,81,1,7.6,7,7.6,8.530885,34,3,s
60.10095,82,1,8.1,6.8,7.9,8.530885,24,13,m
894.609429,60,1,9.1,7,8.8,8.530885,30,0,l
135.469756,85,1,9.1,7.2,8.3,8.530885,29,10,l
1303.340784,82,1,6.9,6.88237,8.009683,7,20,9,s
19265.8304,89,1,9.1,7,8.8,8.530885,30,15,s
94.986767,85,1,9.1,7.2,8.3,8.530885,29,5,m
3600.174416,80,3,8.6,6.88237,7.3,6,15,7,l
4440.3825,80,3,9.2,6.88237,8.4,10,25,0,l
3087.826673,85,1,8,6.4,7.7,6,19,0,s
13302.09171,89,1,9.1,7.2,8.3,8.530885,29,0,s
2725.499726,86,1,7.7,6.6,7.6,8,17,647,s
189.098607,85,1,9.1,7.2,8.3,8.530885,29,11,l
27.520804,84,1,6.7,6.3,6.6,8,11,5,s
289.041919,85,1,9.1,7.2,8.3,8.530885,29,10,l
478.399954,85,1,9.1,7.2,8.3,8.530885,29,8,m
131.31582,85,1,9.1,7.2,8.3,8.530885,29,7,m
181.977207,89,1,8.3,6.88237,8.009683,9,22,21,m
17325.42736,85,1,9.5,6.88237,8.5,12,33,18,m
194.940432,85,1,9.1,7.2,8.3,8.530885,29,7,m
17567.4578,85,1,9.5,6.88237,8.5,12,33,0,m
499.824696,85,1,7.7,6.5,7.7,8,48,0,s
8369.716602,88,1,8,7.2,7.8,7,55,0,s
11575.1669,89,1,8,6.4,7.7,6,19,0,s
3992.820705,80,1,8.6,6.88237,9.1,8.530885,33,20,m
2278.354826,60,1,9.1,7,8.8,8.530885,30,9,m
1186.016014,82,1,7.4,6.88237,8.009683,8.530885,39,9,s
14968.99543,89,1,8.3,6.5,7.8,8.530885,10,8,s
136.045014,85,1,9.1,7.2,8.3,8.530885,29,6,l
1856.526501,88,1,8.2,6.88237,8.009683,8,32,8,s
624.42146,85,1,7.8,6.8,7.7,8,24,8,s
3585.050212,85,1,8.7,7.7,7.8,6,30,5,s
197.723321,82,1,7.9,6.88237,7.9,9,47,0,s
83.323579,85,1,7.7,6.6,7.6,8,17,0,m
377.735956,75,3,7.2,6.88237,8.009683,6,10,70,m
15.011767,85,3,7.5,6.9,7.2,9,10,10,m
533.376436,87,3,9.2,6.88237,8.4,10,25,0,s
13315.0929,89,1,9.1,7.2,8.3,8.530885,29,5,m
118.676664,85,1,9.1,7.2,8.3,8.530885,29,9,m
260.783587,60,1,9.1,7,8.8,8.530885,30,9,l
1993.514891,89,1,8.4,6.7,8.2,8,33,20,s
7386.526899,81,1,8.8,7.2,8.5,9,22,6,m
183.508067,85,1,7.2,6,7.2,8.530885,44,8,s
60.341782,85,1,7.7,6.6,7.6,8,17,22,l
92.369676,85,1,6.7,6,6.7,4,43,0,s
60.940763,50,3,7.7,6.88237,7.8,9,20,14,m
3592.725438,60,1,8.4,6.9,8.5,8.530885,34,0,s
6396.696844,60,1,9.1,7,8.8,8.530885,30,0,m
270.303305,85,1,8.2,6.88237,8.009683,6,7,0,m
5281.479736,80,1,9,6.88237,8.5,7,22,0,s
992.51938,60,1,9.1,7,8.8,8.530885,30,4,m
182.359427,89,1,8.3,6.88237,8.009683,9,22,17,s
2232.161237,89,1,8.3,6.88237,8.009683,9,22,0,s
107.055402,81,1,8,6.88237,8,8.530885,33,8,m
306.130499,85,1,9.1,7.2,8.3,8.530885,29,8,l
6210.366386,88,1,8.3,6.5,7.8,8.530885,10,12,s
21.545693,85,3,7.5,6.9,7.2,9,10,16,s
17052.61811,85,1,9.5,6.88237,8.5,12,33,7,m
9787.160304,81,1,9.5,6.88237,8.5,12,33,13,l
2900.922572,85,1,8.8,7,8,8,35,9,s
792.069527,85,1,9.1,7.2,8.3,8.530885,29,0,s
167.762655,81,1,8.1,7.1,8.1,8.530885,18,0,m
11.736462,84,1,7.1,6.1,7.1,8.530885,32,26,m
68.760853,83,3,7.5,6.88237,8.009683,9,20,10,m
2552.508634,60,1,9.1,7,8.8,8.530885,30,5,m
694.429714,86,1,7.5,6.88237,8.009683,5,40,13,s
657.734666,81,1,8.1,7.1,8.1,8.530885,18,7,m
3064.68509,85,1,7.3,6.88237,7.3,8.530885,36,69,s
46.083572,89,1,8.8,7.2,8.5,9,22,8,l
34.481788,85,1,7.5,6.88237,8.009683,5,40,8,m
98.82468,85,1,9.1,7.2,8.3,8.530885,29,0,l
143.939955,89,1,8.3,6.88237,8.009683,9,22,15,m
10845.0161,80,1,9.5,6.88237,8.5,12,33,11,m
94.144857,86,1,9,6.88237,8.5,7,22,16,l
137.361761,85,1,9.1,7.2,8.3,8.530885,29,12,m
57.67654,85,1,8.3,6.9,8.1,8.530885,27,5,m
367.379252,60,1,7.7,6.1,7.2,8.530885,20,16,m
6355.790212,83,1,8.8,7,8,8,35,12,s
71.851385,85,1,8.3,6.9,8.1,8.530885,27,6,m
76.229829,50,1,7,6.88237,8.009683,8,21,0,s
1830.540599,60,1,9.1,7,8.8,8.530885,30,9,m
202.274888,81,1,8.1,7.1,8.1,8.530885,18,18,l
6487.012181,80,1,8.2,6.88237,8.009683,9,47,11,s
12443.98024,81,1,8.5,6.88237,8.5,11,25,27,s
4082.874101,85,1,7.9,6.6,7.6,6,33,8,s
132.249572,85,1,9.1,7.2,8.3,8.530885,29,11,s
262.585807,85,1,8.4,6.88237,8.5,8.530885,15,58,l
615.561776,89,1,9.5,6.88237,8.5,12,33,0,l
8.372154,81,3,6.4,6.88237,6.8,8.530885,33,7,s
3240.449152,85,1,7.8,7.1,8,9,59,4,s
202.452082,81,1,8.1,7.1,8.1,8.530885,18,19,m
86.347249,82,3,7,5.8,7.1,8.530885,25,23,s
202.136185,88,1,7.6,5.4,7.7,8.530885,30,8,m
3574.757283,80,3,8.6,6.88237,7.3,6,15,15,s
188.749395,89,1,8.3,6.88237,8.009683,9,22,0,m
80.749395,60,1,8.6,7.2,8.4,8.530885,30,8,m
98.875665,85,1,8.3,6.9,8.1,8.530885,27,6,m
15167.25938,88,1,8.1,6.88237,8.009683,8.530885,48,23.263212,s
1771.818077,60,1,9.1,7,8.8,8.530885,30,6,m
3560.248163,80,3,8.6,6.88237,7.3,6,15,15,m
17636.92155,85,1,9.5,6.88237,8.5,12,33,76,m
119.813817,85,1,9.1,7.2,8.3,8.530885,29,6,l
141.482741,89,1,7.5,5.8,6.6,4,10,8,m
5769.747551,80,1,7.8,6.6,8.1,8.530885,29,11,s
108.11048,85,1,9.1,7.2,8.3,8.530885,29,6,l
2725.499726,85,1,8.1,6.88237,8,8.530885,30,647,s
60.730103,82,1,8.1,6.8,7.9,8.530885,24,10,l
3869.751396,80,1,8.6,6.88237,9.1,8.530885,33,0,m
3956.085177,80,1,8.6,6.88237,9.1,8.530885,33,0,m
31.028199,84,1,6.7,6.3,6.6,8,11,0,s
104.762236,87,3,8.6,6.88237,7.3,6,15,32,l
122.757864,89,1,7.8,6.88237,8.009683,9,21,0,s
104.658279,85,1,9.1,7.2,8.3,8.530885,29,8,l
4415.407083,80,3,9.2,6.88237,8.4,10,25,0,s
6111.610141,85,3,9.2,6.88237,8.4,10,25,72,s
37.856357,84,1,8,6.4,7.9,6,33,9,l
3805.412492,80,3,8.6,6.88237,7.3,6,15,0,l
8778.989463,88,1,8.1,7.7,8.2,8.530885,25,12,s
130.983904,85,1,9.1,7.2,8.3,8.530885,29,8,m
103.160508,85,1,7.1,6.88237,8.009683,8.530885,60,0,s
475.200508,85,1,9.1,7.2,8.3,8.530885,29,8,m
202.166975,88,1,7.6,5.4,7.7,8.530885,30,12,m
2497.634068,60,1,9.1,7,8.8,8.530885,30,2,m
310.179757,85,1,9.1,7.2,8.3,8.530885,29,10,l
5140.918248,80,1,8.2,6.88237,8,10,60,0,s
6936.026076,81,1,8,6.7,7.9,8,39,10,s
4373.623843,80,1,8.3,6.88237,7.6,8.530885,26.742663,10,l
4992.502383,80,1,9,6.88237,8.5,7,22,15,s
51.176494,85,1,7.5,6.88237,8.009683,5,40,11,m
182.989871,89,1,8.3,6.88237,8.009683,9,22,19,s
7093.25115,88,1,9.1,7.2,8.3,8.530885,29,4,s
17122.41641,85,1,9.5,6.88237,8.5,12,33,6,m
4372.079971,60,1,9.1,7,8.8,8.530885,30,15,m
312.266624,86,1,8.8,7,8,8,35,2,m
91.490865,85,1,9.1,7.2,8.3,8.530885,29,8,l
198.089112,85,1,6.8,6.88237,8.009683,8.530885,40,10,s
10792.25855,89,3,8.6,6.88237,7.3,6,15,0,s
7616.074103,88,1,9.1,7.2,8.3,8.530885,29,0,s
3788.741301,80,3,8.6,6.88237,7.3,6,15,30,l
3543.407583,80,1,8.6,6.88237,9.1,8.530885,33,44,l
2170.526512,81,1,7.5,6.4,7.3,8.530885,33,0,s
57.818866,83,3,7.5,6.88237,8.009683,9,20,8,l
324.121187,89,1,9.5,6.88237,8.5,12,33,16,m
254.172549,60,1,7.7,6.1,7.2,8.530885,20,9,m
3587.12623,85,1,8.7,7.7,7.8,6,30,22,s
232.399027,85,1,8.4,6.88237,8.5,8.530885,15,0,l
5738.785132,85,3,9.2,6.88237,8.4,10,25,0,s
271.538764,85,1,9.1,7.2,8.3,8.530885,29,5,l
105.891656,85,1,9.1,7.2,8.3,8.530885,29,10,l
15684.03249,86,1,8.8,7.2,8.5,9,22,84,s
3931.607045,80,1,7.4,6.88237,7.4,8.530885,60,0,s
264.960644,85,1,6.8,6.88237,8.009683,8.530885,40,69,s
102.916005,85,1,8.3,6.88237,8.1,8.530885,15,0,s
41.823078,89,1,8.8,7.2,8.5,9,22,16,l
221.257309,86,1,8.8,7,8,8,35,22,l
6174.49172,85,1,7.9,5.8,7.9,8.530885,33,69,s
187.398925,81,1,8.1,7.1,8.1,8.530885,18,15,l
16913.27899,85,1,9.5,6.88237,8.5,12,33,0,m
260.222242,60,1,9.1,7,8.8,8.530885,30,8,l
178.417062,85,1,7.8,6.8,7.7,8,24,44,s
223.29637,88,1,7.5,6.5,7.6,8,24,0,s
221.812645,60,1,7.7,6.1,7.2,8.530885,20,12,m
127.289203,83,3,8.2,6.5,8.1,9,33,0,m
249.186945,85,1,9.1,7.2,8.3,8.530885,29,10,l
719.705874,85,1,7,6.88237,7,8.530885,34,0,s
434.609155,85,1,7.8,6.8,7.7,8,24,0,s
69.845115,83,3,7.5,6.88237,8.009683,9,20,9,s
5181.317335,60,1,9.1,7,8.8,8.530885,30,0,m
137.40021,88,1,7.6,5.4,7.7,8.530885,30,12,l
2725.499726,80,1,8.30368,6.88237,8.009683,8.530885,26.742663,0,m
270.509322,85,1,7.4,6.4,7.4,6,29,0,s
15882.74792,86,1,9.5,6.88237,8.5,12,33,1,m
83.45766,85,1,7.1,6.9,7,8.530885,42,0,s
121.773904,85,1,7.8,6.8,7.7,8,24,0,m
3904.637008,80,1,8.6,6.88237,9.1,8.530885,33,348,m
122.153451,85,1,9.1,7.2,8.3,8.530885,29,12,m
385.452368,85,1,5.5,5.5,5.5,8.530885,41,7,s
10645.09725,80,1,9.5,6.88237,8.5,12,33,0,m
758.863265,60,1,8.3,7,8,8.530885,25,9,l
5388.421768,82,1,8.3,6.5,7.8,8.530885,10,0,s
9222.859434,81,1,9.1,7,8.8,8.530885,30,5,s
200.985848,81,1,8.1,7.1,8.1,8.530885,18,19,m
206.619604,85,1,9.1,7.2,8.3,8.530885,29,7,m
427.844131,85,1,7.8,6.8,7.7,8,24,65,m
319.175842,82,1,6.5,6.88237,6.5,8.530885,33,12,m
9452.864807,88,1,7.6,6.4,7.3,8.530885,45,0,s
71.851385,85,1,8.3,6.9,8.1,8.530885,27,6,m
2578.845023,80,1,8.7,7.7,7.8,6,30,0,s
353.41357,85,1,7.3,6.4,7.3,8.530885,32,7,s
171.519773,81,1,8.1,7.1,8.1,8.530885,18,6,m
230.712354,85,1,8.4,6.88237,8.5,8.530885,15,7,l
2135.067005,60,1,9.1,7,8.8,8.530885,30,0,m
1952.076948,85,1,9,6.88237,8.5,7,22,0,s
8886.793884,81,1,9.1,7,8.8,8.530885,30,0,s
712.191238,60,3,8,7.7,8,10,15,0,l
261.058668,60,1,9.1,7,8.8,8.530885,30,8,l
441.095397,85,1,8.3,6.9,8.1,8.530885,27,69,s
1803.567014,60,1,9.1,7,8.8,8.530885,30,10,m
1921.095782,88,3,9.2,6.88237,8.4,10,25,4,m
96.503901,85,1,9.1,7.2,8.3,8.530885,29,8,s
14076.80509,89,1,9.1,7.2,8.3,8.530885,29,0,m
422.521345,85,1,9.1,7.2,8.3,8.530885,29,0,s
15484.08347,86,1,9.5,6.88237,8.5,12,33,0,m
3294.754714,85,1,8.8,7,8,8,35,0,s
257.078358,85,1,9.1,7.2,8.3,8.530885,29,10,l
61.258825,85,1,7.5,6.88237,8.009683,5,40,0,m
68.169692,83,3,7.5,6.88237,8.009683,9,20,10,m
264.016772,81,1,7,6.88237,8.009683,5,19,3,s
1163.344258,89,1,7.8,6.88237,8.009683,9,21,8,s
540.799706,82,1,7.7,6.88237,8.009683,7,10,0,s
373.26331,85,1,9.1,7.2,8.3,8.530885,29,4,m
1566.754415,85,1,8.3,6.88237,8.009683,10,40,8,s
201.513527,81,1,8.1,7.1,8.1,8.530885,18,20,m
17244.70191,85,1,8,6.6,7.3,7,46,0,s
2337.037716,88,3,9.2,6.88237,8.4,10,25,64,s
2643.733266,88,3,9.2,6.88237,8.4,10,25,0,l
5138.93297,88,1,8.2,6.88237,8.009683,8,25,8,s
659.96332,81,1,8.1,7.1,8.1,8.530885,18,12,m
16972.20917,85,1,8.5,6.88237,8.5,11,26.742663,0,m
588.408303,89,1,8.3,6.88237,8.009683,9,22,13,m
388.597246,85,1,6.6,6.88237,8.009683,8.530885,80,19,s
548.941605,85,3,7.5,6.9,7.2,9,10,63,s
181.379376,87,3,7.6,6.5,7.6,7,25,12,s
278.13629,85,1,9.1,7.2,8.3,8.530885,29,7,l
64.396223,60,3,7.8,6.5,7.5,11,28,0,m
93.670795,85,1,7,6.88237,8.009683,8.530885,60,4,s
181.579589,89,1,8.3,6.88237,8.009683,9,22,13,m
130.276743,85,1,9.1,7.2,8.3,8.530885,29,11,m
10653.78817,80,1,9.5,6.88237,8.5,12,33,135,m
16889.74121,85,1,9.5,6.88237,8.5,12,33,0,m
284.454751,85,1,8.2,6.88237,8.009683,6,7,34,m
82.541547,85,1,9.1,7.2,8.3,8.530885,29,13,l
3594.047054,80,3,8.6,6.88237,7.3,6,15,12,m
17076.36862,85,1,9.5,6.88237,8.5,12,33,8,s
95.260762,85,1,9.1,7.2,8.3,8.530885,29,5,l
11155.1726,80,1,9.5,6.88237,8.5,12,33,32,m
146.287485,85,1,8.3,6.88237,8.3,8.530885,26.742663,18,l
2834.745024,88,1,7.9,6.88237,8.009683,4,14,0,s
3634.899338,80,3,8.6,6.88237,7.3,6,15,30,m
239.353797,85,1,7.9,6.88237,7.9,8.530885,35,0,s
260.104944,60,1,9.1,7,8.8,8.530885,30,8,l
206.133452,85,1,9.1,7.2,8.3,8.530885,29,10,l
2469.187768,85,1,7.3,6.88237,7.3,8.530885,36,8,s
262.180107,89,1,8.8,7.2,8.5,9,22,13,l
13981.43603,88,1,9.1,7,8.8,8.530885,30,0,s
35.008546,83,3,7.5,6.88237,8.009683,9,20,5,m
17056.92349,85,1,9.5,6.88237,8.5,12,33,37,s
10811.36104,80,1,9.5,6.88237,8.5,12,33,0,m
11579.55421,80,1,8.1,6.6,7.6,9,13,0,s
135.279098,84,1,8.3,6.88237,8.3,10,20,158,l
5541.451293,85,1,7.9,6.6,7.9,8,49,4,s
8069.055181,81,1,8.3,6.88237,8.009683,9,22,0,s
186.048571,85,1,7,6.88237,8.009683,8.530885,50,5,s
3194.698591,85,1,8.3,6.5,7.8,8.530885,10,12,s
393.00769,85,1,6.9,6.88237,8.009683,8,9,0,s
192.746634,50,1,7.1,6.88237,7.1,10,26.742663,7,s
131.022739,85,1,9.1,7.2,8.3,8.530885,29,9,l
3784.550069,80,1,7.9,6.88237,8.009683,6,109,0,s
4583.011754,60,1,9.1,7,8.8,8.530885,30,11,s
87.432723,85,1,9.1,7.2,8.3,8.530885,29,7,l
480.842645,85,1,7.4,6.88237,7.4,8.530885,60,0,s
213.975384,81,1,8.1,7.1,8.1,8.530885,18,24,m
4730.68643,60,1,9.1,7,8.8,8.530885,30,6,m
112.043463,85,1,7.5,6.88237,7.5,8.530885,0,0,s
1789.310916,60,1,9.1,7,8.8,8.530885,30,8,m
4144.8739,80,3,8.30368,6.88237,8.009683,5,26.742663,0,m
5172.665213,60,1,7.8,6.5,7.3,8.530885,20,0,m
4258.993127,81,1,8.1,6.88237,8.009683,9,19,1,s
80.256887,83,1,8.3,6.88237,8.3,9,100,0,m
3806.057197,80,3,8.6,6.88237,7.3,6,15,9,l
23.342032,50,1,7,6.88237,8.009683,8,21,2,s
51.623661,50,1,6.7,6.88237,6.7,10,26.742663,12,l
136.875959,85,1,8.3,6.88237,8.1,8.530885,15,3,m
595.759463,86,1,7.7,6.6,7.6,8,17,0,m
13203.19753,89,1,9.1,7.2,8.3,8.530885,29,7,l
170.764388,85,1,9.1,7.2,8.3,8.530885,29,8,l
92.711757,85,1,9.1,7.2,8.3,8.530885,29,9,l
418.477439,85,1,9.1,7.2,8.3,8.530885,29,2,m
6.953139,85,3,7.5,6.9,7.2,9,10,8,m
92.680562,84,1,8,6.4,7.9,6,33,248,m
5652.687465,80,1,8.3,6.88237,8.009683,10,40,0,s
2581.580706,60,1,9.1,7,8.8,8.530885,30,9,m
2725.499726,85,5,6.4,6.88237,6.4,8.530885,26.742663,647,l
49.838283,82,1,8.1,6.8,7.9,8.530885,24,18,m
5935.394605,80,1,9.1,7.2,8.3,8.530885,29,6,m
134.481402,85,1,9.1,7.2,8.3,8.530885,29,11,m
17034.05328,85,1,9.5,6.88237,8.5,12,33,0,m
181.793683,85,1,9.1,7.2,8.3,8.530885,29,8,l
97.255308,85,1,9.1,7.2,8.3,8.530885,29,6,m
2628.76984,85,1,8.3,7.3,8.1,9,14,0,s
54.304184,89,1,8,6.7,7.9,8,39,13,m
447.499026,87,3,9.2,6.88237,8.4,10,25,14,s
335.616511,75,3,7.2,6.88237,8.009683,6,10,0,l
10110.92412,81,3,8.6,6.88237,7.3,6,15,36,s
144.524955,85,1,8.2,6.88237,8.009683,6,7,0,m
1780.538779,73,1,7.8,6.88237,8.3,9,10,79,s
69.507836,83,3,7.5,6.88237,8.009683,9,20,16,s
3655.582166,80,1,8.6,6.88237,9.1,8.530885,33,0,m
118.553749,85,1,9.1,7.2,8.3,8.530885,29,13,m
235.201762,85,1,9.1,7.2,8.3,8.530885,29,9,m
78.815933,85,1,9.1,7.2,8.3,8.530885,29,13,m
118.353359,85,1,9.1,7.2,8.3,8.530885,29,9,l
683.842023,86,1,7.8,6.8,7.7,8,24,27,m
16958.59934,85,1,9.5,6.88237,8.5,12,33,0,m
120.430125,85,1,8.4,6.88237,8.4,8.530885,26.742663,8,l
198.347064,85,1,9.1,7.2,8.3,8.530885,29,11,m
218.140227,85,1,6.6,5.8,6.4,8.530885,28,6,s
154.249572,85,1,7.7,6.6,7.6,8,17,0,s
21.480387,88,1,7.7,6.5,7.5,8.530885,14,19,m
353.401412,85,1,5.7,5.4,5.1,8.530885,33,0,s
13529.76609,87,1,8.3,6.88237,8.009683,9,22,0,s
5695.835243,88,1,8.1,7.3,8.2,8.530885,10,12,s
5781.999213,80,1,9.1,7.2,8.3,8.530885,29,7,m
811.380689,85,1,9.1,7.2,8.3,8.530885,29,11,s
98.543594,85,1,9.1,7.2,8.3,8.530885,29,12,m
91.324361,85,3,7.5,6.9,7.2,9,10,13,l
262.266441,85,1,8.4,6.88237,8.5,8.530885,15,14,m
65.417177,83,3,7.5,6.88237,8.009683,9,20,15,l
48.991877,88,1,7.7,6.88237,6.9,8.530885,25,18,l
11206.8197,88,1,9.5,6.88237,8.5,12,33,0,s
181.364928,89,1,8.3,6.88237,8.009683,9,22,15,m
132.397169,85,1,9.1,7.2,8.3,8.530885,29,7,m
146.894066,89,1,8.3,6.88237,8.009683,9,22,21,m
16.038047,85,3,7.5,6.9,7.2,9,10,5,m
3508.196305,81,1,8.5,7.7,8.1,9,13,18,s
36.235233,88,1,7.7,6.5,7.5,8.530885,14,45,l
38.356747,89,1,8.8,7.2,8.5,9,22,38,l
135.207872,50,1,6.3,6.88237,8.009683,6,12,0,s
20.670876,84,1,7.5,6.3,7.2,8.530885,31,12,m
43.092702,85,1,7.9,6.88237,7.9,8.530885,35,507,l
2725.499726,60,3,7.8,6.5,7.5,11,28,647,m
3869.020858,80,3,8.6,6.88237,7.3,6,15,23,m
717.932033,85,1,9.1,7.2,8.3,8.530885,29,0,m
622.265372,85,1,9.1,7.2,8.3,8.530885,29,0,m
2135.762567,60,1,9.1,7,8.8,8.530885,30,36,m
7.191394,85,3,7.5,6.9,7.2,9,10,7,m
170.886588,82,1,8.1,6.8,7.9,8.530885,24,15,m
181.243248,89,1,8.3,6.88237,8.009683,9,22,15,m
2725.499726,89,1,8.2,6.88237,8.4,11,25,647,s
1842.05191,60,1,9.1,7,8.8,8.530885,30,12,m
3776.216009,80,1,8.6,6.88237,9.1,8.530885,33,0,s
431.026238,85,1,9.1,7.2,8.3,8.530885,29,4,m
101.497435,85,1,9.1,7.2,8.3,8.530885,29,7,l
90.796619,85,1,9.1,7.2,8.3,8.530885,29,6,l
69.707744,83,3,7.5,6.88237,8.009683,9,20,11,m
308.471426,85,1,8.4,6.88237,8.5,8.530885,15,0,m
106.383708,88,1,8.2,6.88237,8.009683,9,47,6,m
96.830608,60,3,8,7.7,8,10,15,11,l
4379.789301,60,1,9.1,7,8.8,8.530885,30,0,s
160.290527,82,1,8.1,6.8,7.9,8.530885,24,31,m
278.543969,60,1,7.7,6.1,7.2,8.530885,20,3,l
1666.497916,73,1,8.5,6.88237,8.009683,11,26.742663,10,m
9033.358131,81,1,8.8,7,8,8,35,0,s
129.649929,85,1,9.1,7.2,8.3,8.530885,29,8,m
8333.580017,77,1,8.1,6.88237,8.009683,8.530885,48,11,s
685.271794,85,3,7.5,6.9,7.2,9,10,9,s
11447.14552,81,3,9.2,6.88237,8.4,10,25,0,s
10833.95716,80,1,9.5,6.88237,8.5,12,33,0,m
155.433114,85,1,6.4,6,6.4,8.530885,10,145,s
84.969276,83,1,7,6.2,7.2,8.530885,20,12,m
269.385413,89,1,8.8,7.2,8.5,9,22,7,l
111.946504,85,1,9.1,7.2,8.3,8.530885,29,17,l
41.176781,60,1,7.8,6.5,7.3,8.530885,20,9,m
849.885994,85,1,7.1,6.88237,8.009683,8.530885,25,7,s
12110.17111,89,1,8.8,7,8,8,35,0,s
10965.71363,80,1,9.5,6.88237,8.5,12,33,156,m
6306.784345,80,1,9.1,7.2,8.3,8.530885,29,6,m
17002.06468,85,1,9.5,6.88237,8.5,12,33,0,m
7504.899864,87,1,8.1,7.1,8.1,8.530885,18,0,s
3956.085177,80,1,8.6,6.88237,9.1,8.530885,33,0,m
8451.115217,88,1,8.6,6.88237,9.1,8.530885,33,6,s
13.550662,85,5,6.4,6.88237,6.4,8.530885,26.742663,5,m
121.968639,88,1,7.3,6.88237,8.009683,8.530885,28,5,m
10970.39114,80,1,9.5,6.88237,8.5,12,33,8,m
586.021005,85,1,7.5,6.88237,8.009683,5,40,0,s
403.195894,85,1,9.1,7.2,8.3,8.530885,29,8,m
40.374622,86,1,8.3,7.3,8.1,9,14,37,l
10864.15717,80,1,8,6.6,7.3,7,46,0,s
225.352834,85,1,7.7,6.5,7.7,8,48,0,s
156.478929,85,1,7.5,6.88237,7.5,9,10,19,s
658.544303,85,1,9.1,7.2,8.3,8.530885,29,23.263212,s
856.249128,85,1,8.3,6.88237,8.009683,10,40,14,s
2823.385864,85,1,7.3,6.88237,7.3,8.530885,36,0,s
462.797637,82,1,7.1,6.88237,8.009683,8.530885,36,3,s
134.241888,85,1,9.1,7.2,8.3,8.530885,29,8,l
483.479579,85,1,9.1,7.2,8.3,8.530885,29,3,m
393.689993,85,1,5.5,6.1,5.5,8.530885,29,92,s
133.836899,89,1,8.3,6.88237,8.009683,9,22,19,l
3021.896737,88,3,9.2,6.88237,8.4,10,25,12,m
2058.525403,60,1,9.1,7,8.8,8.530885,30,0,m
7479.907944,88,1,9.1,7.2,8.3,8.530885,29,0,m
201.427351,81,1,8.1,7.1,8.1,8.530885,18,25,l
161.719278,86,1,8.3,6.5,7.8,8.530885,10,0,l
3189.161396,81,1,8.1,7.1,8.1,8.530885,18,0,s
9339.046973,88,1,7.6,7,7.8,8.530885,17,0,s
21.976831,50,1,7,6.88237,8.009683,8,21,6,s
666.898079,60,1,9.1,7,8.8,8.530885,30,0,m
3953.527508,80,1,7.9,6.88237,8.009683,6,109,0,s
9.673449,85,3,7.5,6.9,7.2,9,10,7,m
5.63037,85,3,7.5,6.9,7.2,9,10,5,m
2619.538063,81,1,8.1,7.1,8.1,8.530885,18,3,s
153.518731,85,1,9.1,7.2,8.3,8.530885,29,11,m
4073.701006,80,1,7.9,6.88237,8.009683,4,14,0,s
96.279063,85,1,8.3,6.88237,8.1,8.530885,15,158,m
17714.59772,85,1,9.5,6.88237,8.5,12,33,24,m
496.255879,85,1,9.1,7.2,8.3,8.530885,29,7,m
8209.418517,88,1,8.8,7,8,8,35,0,s
1622.904789,60,1,9.1,7,8.8,8.530885,30,8,m
2725.499726,85,5,6.4,6.88237,6.4,8.530885,26.742663,647,l
499.806788,85,1,7.6,6.5,7.6,6,33,19,s
87.833389,85,1,6.9,6.88237,6.9,8.530885,30,15,s
9146.739409,81,1,8.2,6.88237,8.009683,9,47,0,s
114.832984,85,1,9.1,7.2,8.3,8.530885,29,8,m
260.424393,60,1,9.1,7,8.8,8.530885,30,8,l
358.367498,60,1,9.1,7,8.8,8.530885,30,0,m
4497.246505,85,1,8,6.4,7.7,6,19,0,s
2990.653469,85,1,8.8,7,8,8,35,95,s
147.594982,82,1,7.3,6.7,7.8,8.530885,33,0,s
148.783957,85,1,8.3,6.88237,8.1,8.530885,15,92,m
895.565506,81,1,7.7,6.88237,8.009683,7,10,0,s
53.290592,85,3,7.5,6.9,7.2,9,10,0,s
5906.406453,85,1,7.9,6.4,7.4,8,24,0,s
121.012905,85,1,9.1,7.2,8.3,8.530885,29,9,m
91.359395,85,1,9.1,7.2,8.3,8.530885,29,28,l
257.064915,85,1,8.4,6.88237,8.5,8.530885,15,36,m
27.682346,50,1,7,6.88237,8.009683,8,21,7,s
9553.278662,81,1,9.1,7.2,8.3,8.530885,29,8,m
10507.30341,89,1,8.1,6.88237,8.009683,9,19,0,s
80.81217,85,3,7.5,6.9,7.2,9,10,0,s
276.238037,85,1,7.8,6.8,7.7,8,24,0,s
2522.24251,60,1,9.1,7,8.8,8.530885,30,11,m
169.910942,88,1,6.8,6.88237,8.009683,8,24,0,s
345.261037,50,1,6.8,6.88237,8.009683,8,14,0,s
478.750387,85,3,7.5,6.9,7.2,9,10,5,s
180.621474,81,1,8.1,7.1,8.1,8.530885,18,0,m
71.545184,60,1,8.6,7.2,8.4,8.530885,30,0,m
218.892244,85,1,9.1,7.2,8.3,8.530885,29,13,l
30.150245,50,1,6.7,5.9,6.7,8,33,7,s
6775.674048,88,1,8.1,6.88237,8.3,9,45,0,s
10797.5137,88,3,8.2,6.5,8.1,9,33,0,s
183.024914,89,1,8.3,6.88237,8.009683,9,22,11,s
16.221075,84,1,7.1,6.1,7.1,8.530885,32,14,m
2280.13797,81,1,7.5,6.88237,8.009683,8.530885,10,2,s
13766.74597,85,1,8.1,6.4,7.7,9,23,0,s
262.364263,60,1,9.1,7,8.8,8.530885,30,9,l
4372.140995,60,1,9.1,7,8.8,8.530885,30,0,m
6815.651323,81,1,9.1,7.2,8.3,8.530885,29,23.263212,s
17111.66423,85,1,9.5,6.88237,8.5,12,33,0,s
181.684423,89,1,8.3,6.88237,8.009683,9,22,19,m
252.818917,85,1,9.1,7.2,8.3,8.530885,29,7,l
6493.944474,85,1,7.9,5.8,7.9,8.530885,33,19,s
9711.511809,81,1,9.1,7.2,8.3,8.530885,29,4,m
183.253053,89,1,8.3,6.88237,8.009683,9,22,13,s
69.460517,83,3,7.5,6.88237,8.009683,9,20,10,m
181.593787,89,1,8.3,6.88237,8.009683,9,22,19,m
131.57021,85,1,9.1,7.2,8.3,8.530885,29,17,l
7309.271509,73,1,8.6,8,8.6,11,33,1,s
99.346369,85,1,9.1,7.2,8.3,8.530885,29,9,m
1300.881493,85,1,8.2,6.88237,7.8,9,30,0,s
1452.548755,87,1,7.8,6.3,7.6,7,33,8,s
7864.520267,88,1,8.4,6.7,8.2,8,33,0,s
2171.925515,88,1,7.9,6.88237,8.009683,4,14,0,s
64.658763,83,3,7.5,6.88237,8.009683,9,20,0,m
192.928602,85,1,9.1,7.2,8.3,8.530885,29,4,l
829.484553,85,1,7.9,6.88237,7.9,8.530885,35,12,s
608.117835,89,1,8.8,7.2,8.5,9,22,12,l
168.485866,81,1,8,6.88237,8,8.530885,33,22,s
397.135613,85,1,7.1,6.3,7.1,8,50,5,s
123.084988,85,1,9.1,7.2,8.3,8.530885,29,8,m
158.176247,89,1,8.8,7.2,8.5,9,22,0,l
116.792121,85,1,9.1,7.2,8.3,8.530885,29,8,m
6244.084663,60,1,9.1,7,8.8,8.530885,30,0,m
262.266441,85,1,8.4,6.88237,8.5,8.530885,15,14,m
569.673376,85,1,6.9,6.88237,8.009683,8,9,0,s
30.873596,85,1,7.9,6.88237,7.9,8.530885,35,14,s
103.170007,89,1,8.2,6.88237,8.009683,8,25,8,m
93.89954,85,1,7.9,6.88237,7.9,9,40,5,m
51.340014,81,1,7.8,6.88237,8.009683,9,15,8,m
158.088445,89,1,8.3,6.88237,8.009683,9,22,12,m
39.148339,82,1,8.1,6.8,7.9,8.530885,24,17,s
11429.33286,82,1,8.3,6.88237,8.009683,9,22,0,s
117.936702,85,1,9.1,7.2,8.3,8.530885,29,6,l
579.66848,85,1,9.1,7.2,8.3,8.530885,29,6,m
1792.411325,60,1,9.1,7,8.8,8.530885,30,0,l
104.959463,85,1,8.1,6.88237,8.3,9,45,0,m
96.494093,85,3,7.5,6.9,7.2,9,10,10,m
162.953851,50,3,7.7,6.88237,7.8,9,20,9,m
149.768989,85,1,6.5,6,6.6,8.530885,10,0,s
100.564821,85,1,9.1,7.2,8.3,8.530885,29,16,l
263.105388,85,1,8.1,6.88237,8.3,9,45,0,s
63.852213,82,1,7.6,6.5,7.8,8.530885,13,0,l
98.30731,85,1,9.1,7.2,8.3,8.530885,29,6,l
4218.976391,77,1,8.1,6.88237,8.009683,8.530885,48,0,s
16970.39666,85,1,9.5,6.88237,8.5,12,33,8,l
1017.011959,85,1,8.3,6.88237,8.1,8.530885,15,10,s
422.700978,85,1,7.8,6.8,7.7,8,24,5,m
5233.721545,87,1,9.1,7.2,8.3,8.530885,29,0,s
2264.736081,81,1,8.1,6.6,8,8.530885,10,0,s
10446.27963,81,1,8.3,6.5,7.8,8.530885,10,11,s
7288.822867,81,3,8.6,6.88237,7.3,6,15,7,l
181.6955,89,1,8.3,6.88237,8.009683,9,22,12,m
6249.751919,80,1,9.1,7.2,8.3,8.530885,29,11,l
181.378385,89,1,8.3,6.88237,8.009683,9,22,21,s
152.589425,60,1,7.8,6.5,7.3,8.530885,20,41,m
183.062677,89,1,8.3,6.88237,8.009683,9,22,18,m
31.090521,50,1,7,6.88237,8.009683,8,21,7,m
121.81279,89,1,8,6.7,7.9,8,39,13,m
59.777319,60,1,7.8,6.5,7.3,8.530885,20,9,m
2107.742114,82,1,6.7,6.88237,8.009683,5,64,0,s
868.360375,86,1,9.1,7.2,8.3,8.530885,29,13,s
374.857907,85,1,5.5,5.5,5.5,8.530885,41,100,s
10832.0594,80,1,9.5,6.88237,8.5,12,33,9,m
201.489247,81,1,8.1,7.1,8.1,8.530885,18,30,l
71.851385,85,1,8.3,6.9,8.1,8.530885,27,6,m
71.773279,85,1,8.3,6.9,8.1,8.530885,27,0,m
131.38944,85,1,9.1,7.2,8.3,8.530885,29,8,m
319.804873,85,1,6.9,6.4,6.9,8.530885,33,26,s
4319.152039,80,1,8.1,7.1,8.1,8.530885,18,11,s
6090.853586,85,1,7.7,6.4,7.9,8.530885,33,8,s
2725.499726,85,1,8.1,6.88237,8,8.530885,30,647,m
118.476203,85,1,9.1,7.2,8.3,8.530885,29,12,m
5905.509988,88,1,8.3,6.5,7.8,8.530885,10,7,s
44.846435,82,1,8.1,6.8,7.9,8.530885,24,19,m
886.8605,89,1,8.3,6.88237,8.009683,9,22,10,s
1438.754694,85,1,8.4,6.88237,8.5,8.530885,15,7,s
48.540495,83,3,7.5,6.88237,8.009683,9,20,15,m
69.669081,83,3,7.5,6.88237,8.009683,9,20,10,l
232.986661,85,1,7.3,6.6,7.3,8.530885,51,0,s
672.975638,85,0,8.30368,4.9,8.009683,8.530885,10,95,s
8624.825131,87,1,8.1,7.1,8.1,8.530885,18,0,s
11.842508,84,1,7.1,6.1,7.1,8.530885,32,0,l
15297.27654,88,1,8.1,6.88237,8.009683,8.530885,48,0,s
143.110428,85,1,7.4,6.88237,7.4,8.530885,10,0,s
6870.606512,88,1,8.3,6.9,8.1,8.530885,27,0,s
16977.90433,85,1,9.5,6.88237,8.5,12,33,0,l
6946.111973,88,1,8.8,7.2,8.5,9,22,0,s
218.046819,81,1,7.6,7,7.6,8.530885,34,2,s
604.792544,82,1,7.7,6.9,7.7,3,20,0,s
2725.499726,85,1,8.3,6.88237,8.1,8.530885,15,647,m
7325.449513,88,1,8.5,7.7,8.1,9,13,5,s
381.677822,50,1,6,6.88237,8.009683,8,8,0,s
3997.991674,80,1,8.6,6.88237,9.1,8.530885,33,15,m
760.293926,60,1,9.1,7,8.8,8.530885,30,5,s
147.628956,85,1,9.1,7.2,8.3,8.530885,29,7,l
11153.13767,88,1,8.8,7.2,8.5,9,22,12,s
10.907911,85,3,7.6,6.88237,7.3,8.530885,10,12,s
312.895438,85,1,8.2,6.88237,8.009683,6,7,132,m
4706.912864,60,1,9.1,7,8.8,8.530885,30,8,m
6285.516147,85,1,7.9,5.8,7.9,8.530885,33,0,s
92.620816,85,1,9.1,7.2,8.3,8.530885,29,8,s
3563.676029,80,3,8.6,6.88237,7.3,6,15,0,m
4961.179913,80,1,7.8,6.3,7.6,7,33,6,s
181.463423,89,1,8.3,6.88237,8.009683,9,22,15,m
6702.506356,81,1,9,6.88237,8.5,7,22,0,s
492.221849,85,1,9.1,7.2,8.3,8.530885,29,4,m
137.75184,89,1,8,6.7,7.9,8,39,12,m
9138.982983,77,1,9.1,7,8.8,8.530885,30,4,s
5185.08353,60,1,9.1,7,8.8,8.530885,30,2,s
7357.907634,81,1,8.8,7.2,8.5,9,22,3,m
17233.36189,85,1,9.5,6.88237,8.5,12,33,6,s
71.877688,85,1,8.3,6.9,8.1,8.530885,27,8,m
7207.66467,73,1,8.6,8,8.6,11,33,435,s
242.018311,80,1,7.9,6.88237,8.009683,10,26.742663,14,s
212.253658,81,1,8.1,7.1,8.1,8.530885,18,13,m
11383.8265,81,1,8.4,6.7,8.2,8,33,5,s
495.407144,85,1,7.6,6.88237,7.3,8.530885,74,67,s
106.537318,85,1,9.1,7.2,8.3,8.530885,29,7,l
19.742557,83,3,7.5,6.88237,8.009683,9,20,7,s
3790.828323,80,1,8.6,6.88237,9.1,8.530885,33,16,m
2725.499726,60,1,9.1,7,8.8,8.530885,30,647,l
1024.361783,85,1,8.5,7.7,8.1,9,13,17,s
16547.23453,71,1,9.1,7.2,8.3,8.530885,29,0,s
286.122895,86,1,8.8,7,8,8,35,4,s
69.109457,83,3,7.5,6.88237,8.009683,9,20,17,m
138.116372,50,3,7.7,6.88237,7.8,9,20,7,s
69.245869,83,3,7.5,6.88237,8.009683,9,20,0,l
121.737901,85,1,9.1,7.2,8.3,8.530885,29,8,m
1735.616389,60,1,9.1,7,8.8,8.530885,30,12,m
240.267558,85,1,7.1,6.3,7.1,9,9,8,s
104.8434,85,1,7.3,6.88237,8.009683,9,63,0,s
133.597352,60,1,7.8,6.5,7.3,8.530885,20,16,s
14.752263,89,3,6.2,6.1,6.3,7,37,6,l
137.080046,85,1,9.1,7.2,8.3,8.530885,29,9,m
115.890371,85,1,9.1,7.2,8.3,8.530885,29,12,l
119.194051,85,1,9.1,7.2,8.3,8.530885,29,9,l
181.392392,89,1,8.3,6.88237,8.009683,9,22,11,s
4235.30207,85,3,7,5.8,7.1,8.530885,25,9,s
38.732459,83,1,7.9,6.3,7.6,6,24,19,m
465.705425,85,1,8.3,6.88237,8.1,8.530885,15,14,m
16857.22099,85,1,9.5,6.88237,8.5,12,33,0,m
122.385232,85,1,7.7,6.6,7.6,8,17,0,m
114.629974,85,1,9.1,7.2,8.3,8.530885,29,5,l
1756.820521,60,1,9.1,7,8.8,8.530885,30,9,l
16065.25275,89,1,8.3,6.5,7.8,8.530885,10,0,s
67.872469,50,3,7.7,6.88237,7.8,9,20,0,m
6479.890144,88,1,8.3,6.88237,8.009683,9,22,23.263212,s
213.903963,81,1,8.1,7.1,8.1,8.530885,18,19,l
2725.499726,85,1,8.3,6.88237,8.1,8.530885,15,647,m
201.697894,81,1,8.1,7.1,8.1,8.530885,18,17,l
3516.047227,80,3,8.6,6.88237,7.3,6,15,0,m
98.322699,86,1,8.3,6.5,7.8,8.530885,10,5,l
303.673414,85,1,7.3,6.4,7.3,8.530885,32,0,s
10351.11911,80,1,8.2,6.88237,8.009683,8,25,0,s
1247.967525,85,1,9.1,7.2,8.3,8.530885,29,8,s
149.745956,85,1,9.1,7.2,8.3,8.530885,29,20,l
10645.09725,80,1,9.5,6.88237,8.5,12,33,0,m
9203.349928,88,1,8.6,6.88237,9.1,8.530885,33,0,s
11150.38372,80,1,9.5,6.88237,8.5,12,33,5,m
5989.014068,88,1,8.8,7.2,8.5,9,22,8,s
121.437106,85,1,7.5,6.88237,7.5,8.530885,20,0,s
1965.893111,85,1,9,6.88237,8.5,7,22,95,s
1538.345709,89,1,7.5,5.8,6.6,4,10,8,s
66.811755,83,3,7.5,6.88237,8.009683,9,20,0,m
448.442463,85,1,8.2,6.88237,7.8,9,30,4,s
1109.327027,85,1,8.3,7.3,8.1,9,14,0,s
71.238318,50,3,7.7,6.88237,7.8,9,20,5,m
2576.929951,81,1,9.1,7.2,8.3,8.530885,29,0,s
227.465076,85,1,9.1,7.2,8.3,8.530885,29,9,l
101.157025,60,1,9.1,7,8.8,8.530885,30,0,l
410.76258,85,1,9.1,7.2,8.3,8.530885,29,6,l
274.660493,85,1,8.1,6.88237,8,8.530885,30,12,m
1.932262,81,1,8.30368,6.88237,8.009683,8.530885,26.742663,15,s
665.960407,60,1,9.1,7,8.8,8.530885,30,9,m
330.212673,86,1,9,6.88237,8.5,7,22,0,l
633.302319,85,1,7.1,6.3,7.1,8,50,80,s
78.719503,85,1,9.1,7.2,8.3,8.530885,29,18,l
11547.64513,88,1,8.8,7.2,8.5,9,22,72,s
142.123747,89,1,6.9,6.7,7,8.530885,11,0,s
642.18054,60,1,9.1,7,8.8,8.530885,30,15,l
183.413387,89,1,8.3,6.88237,8.009683,9,22,6,m
3532.280207,80,1,8.6,6.88237,9.1,8.530885,33,0,l
10224.64633,88,1,8.1,6.88237,8.009683,9,19,20,s
132.966745,85,1,8.3,6.88237,8.1,8.530885,15,17,m
57.919796,60,3,7.8,6.5,7.5,11,28,5,m
23.108854,74,3,7,6.8,7.3,8.530885,13,6,s
7726.530269,88,1,9.1,7.2,8.3,8.530885,29,37,s
304.939007,85,1,7.3,6.5,7.1,8.530885,33,6,s
123.017398,89,1,7.5,5.8,6.6,4,10,0,m
4016.488343,80,1,8.6,6.88237,9.1,8.530885,33,15,m
161.967978,85,1,8.3,6.88237,8.1,8.530885,15,16,s
105.903071,85,1,9.1,7.2,8.3,8.530885,29,8,l
2499.086385,60,1,9.1,7,8.8,8.530885,30,10,m
17100.65672,85,1,8,6.7,7.8,8,40,0,s
1897.590463,85,1,7.2,6.88237,7.2,10,20,5,s
3627.892888,85,3,8.2,6.5,8.1,9,33,10,s
1430.243194,74,1,7.2,6.88237,8.009683,9,10,0,s
49.40533,82,1,8.1,6.8,7.9,8.530885,24,14,l
24.04972,76,1,8.30368,6.88237,8.009683,8.530885,26.742663,1,s
48.82344,60,1,7.8,6.5,7.3,8.530885,20,8,m
6592.321871,88,1,8.1,6.88237,7.5,9,38,0,s
790.501894,60,1,9.1,7,8.8,8.530885,30,7,s
1963.222908,60,1,9.1,7,8.8,8.530885,30,10,l
4130.814037,80,1,7.7,6.5,7.5,8.530885,14,0,s
34.354256,60,3,7.8,6.5,7.5,11,28,0,m
241.42453,60,1,7.8,5.7,7.2,8.530885,18,0,l
139.450002,85,1,8.1,6.88237,8.3,9,45,351,m
351.305398,85,1,9.1,7.2,8.3,8.530885,29,9,m
8182.486659,80,1,7.3,6.88237,7.3,8.530885,36,0,s
6372.096018,60,1,9.1,7,8.8,8.530885,30,0,m
1671.384213,88,1,7.7,6.5,7.5,8.530885,14,0,s
8269.118924,73,1,9.1,7.2,8.3,8.530885,29,0,s
315.728552,85,1,9.1,7.2,8.3,8.530885,29,0,m
117.387761,85,1,9.1,7.2,8.3,8.530885,29,6,m
88.712018,88,1,6.8,6.88237,8.009683,8,24,0,s
615.867056,60,1,9.1,7,8.8,8.530885,30,15,l
13302.22501,89,1,9.1,7.2,8.3,8.530885,29,8,m
181.71474,89,1,8.3,6.88237,8.009683,9,22,15,m
60.104641,89,1,8.8,7.2,8.5,9,22,11,l
895.618438,60,1,9.1,7,8.8,8.530885,30,0,l
7512.520344,81,1,8.3,6.5,7.8,8.530885,10,5,s
101.41935,85,1,9.1,7.2,8.3,8.530885,29,15,l
302.917248,81,1,8.1,7.1,8.1,8.530885,18,0,m
183.498509,89,1,8.3,6.88237,8.009683,9,22,10,s
181.971035,89,1,8.3,6.88237,8.009683,9,22,17,l
12698.84594,89,1,7.9,6.4,7.4,8,24,0,s
50.340036,83,3,7.5,6.88237,8.009683,9,20,0,m
10321.7979,88,1,8.3,6.88237,8.009683,9,22,23.263212,s
327.804521,85,1,9.1,7.2,8.3,8.530885,29,7,l
133.074518,85,1,9.1,7.2,8.3,8.530885,29,9,l
97.509242,86,1,8.3,6.5,7.8,8.530885,10,4,l
2018.401951,60,1,9.1,7,8.8,8.530885,30,6,m
1788.953438,88,1,8.2,6.88237,8.009683,8,32,6,s
10669.67638,88,1,8.8,7.2,8.5,9,22,0,s
78.526843,85,1,8.1,6.88237,8,8.530885,30,149,m
258.915227,85,1,9.1,7.2,8.3,8.530885,29,6,s
44.089182,60,1,7.8,6.5,7.3,8.530885,20,5,l
15871.88028,89,1,9.1,7.2,8.3,8.530885,29,23.263212,s
2725.499726,82,1,7.9,6.6,7.9,8,49,647,m
181.973836,89,1,8.3,6.88237,8.009683,9,22,6,m
5043.084664,80,1,8.3,6.5,7.8,8.530885,10,0,s
98.410629,86,1,8.3,6.5,7.8,8.530885,10,17,l
167.650452,89,1,7.5,5.8,6.6,4,10,382,s
65.708617,85,1,6.2,5.8,6.2,8,15,6,s
1520.772644,85,1,7.6,6.4,7.6,6,50,0,s
2134.081678,88,1,8.2,6.88237,8.009683,8,32,23.263212,s
6268.674031,80,1,9.1,7.2,8.3,8.530885,29,2,s
2042.809957,60,1,9.1,7,8.8,8.530885,30,8,m
5972.846815,85,1,7.7,6.4,7.9,8.530885,33,7,s
16987.4695,85,1,9.5,6.88237,8.5,12,33,0,m
2910.962599,71,1,8.1,6.88237,8.009683,8.530885,48,0,s
121.693225,85,1,9.1,7.2,8.3,8.530885,29,7,m
7662.580318,88,3,9.2,6.88237,8.4,10,25,3,s
29.776816,50,1,7,6.88237,8.009683,8,21,0,s
3971.654055,81,1,7,5.8,7,8.530885,15,0,s
10583.26793,80,1,8.5,6.88237,8.3,11,70,11,m
7547.85033,88,1,9.1,7.2,8.3,8.530885,29,0,m
181.444269,89,1,8.3,6.88237,8.009683,9,22,16,s
2528.451051,85,1,7.6,6.88237,8.009683,7,32,124,s
145.364163,85,1,8.2,6.88237,8.009683,6,7,6,m
7849.409804,74,1,9.5,6.88237,8.5,12,33,11,s
374.746315,85,1,5.6,6.88237,8.009683,8.530885,11,7,s
9256.701952,81,1,9.1,7,8.8,8.530885,30,0,s
14894.68739,88,1,8.1,6.88237,8.009683,8.530885,48,23.263212,s
487.029239,85,1,9.1,7.2,8.3,8.530885,29,6,m
125.793174,82,1,7.9,6.3,7.9,6,48,0,l
0,85,1,6.6,6.88237,6.6,8.530885,26.742663,0,s
224.538141,89,1,8.8,7.2,8.5,9,22,12,m
16980.72527,85,1,9.5,6.88237,8.5,12,33,9,m
183.355208,89,1,8.3,6.88237,8.009683,9,22,7,s
2495.583293,60,1,9.1,7,8.8,8.530885,30,0,m
2357.766411,87,1,8.8,7,8,8,35,7,s
1066.765811,60,1,8.3,7,8,8.530885,25,0,m
122.096312,88,1,7.3,6.88237,8.009683,8.530885,28,6,l
4903.730261,80,1,8.1,6.8,7.9,8.530885,24,0,s
66.735618,88,1,5.5,6.88237,8.009683,5,34,5,s
536.01146,85,1,7.9,6.88237,7.2,8.530885,28,6,s
77.432795,85,1,8.1,6.88237,8,8.530885,30,0,l
102.435172,85,1,6.9,6.4,6.9,8.530885,33,10,s
141.100183,82,3,7,5.8,7.1,8.530885,25,13,m
8980.993028,81,1,8.8,7.2,8.5,9,22,23.263212,s
249.517568,85,1,9.1,7.2,8.3,8.530885,29,12,l
101.689881,85,1,7.5,6.88237,7.5,8.530885,0,0,s
308.761167,85,1,5.6,6.88237,8.009683,8.530885,11,6,s
194.129828,85,1,9.1,7.2,8.3,8.530885,29,11,l
86.140692,85,1,6.9,6.88237,6.9,8.530885,10,0,s
75.721474,85,1,7.5,6.88237,7.5,7,30,0,s
222.998083,60,1,7.7,6.1,7.2,8.530885,20,0,l
136.173031,85,1,9.1,7.2,8.3,8.530885,29,9,l
725.58531,85,1,9.1,7.2,8.3,8.530885,29,67,m
3575.178818,89,1,8.8,7.2,8.5,9,22,2,m
96.238873,85,1,8.3,6.88237,8.1,8.530885,15,0,m
3000.214887,87,1,8.8,7,8,8,35,0,s
2827.803391,87,1,7,5.8,7,8.530885,15,8,s
545.828531,85,1,7,6.88237,8.009683,8.530885,50,7,s
17017.50676,85,1,9.5,6.88237,8.5,12,33,1,m
290.922226,85,1,9.1,7.2,8.3,8.530885,29,10,l
4207.407551,85,3,8.2,6.5,8.1,9,33,0,s
102.725127,85,1,9.1,7.2,8.3,8.530885,29,10,l
261.430523,60,1,9.1,7,8.8,8.530885,30,6,l
77.036171,85,1,9.1,7.2,8.3,8.530885,29,9,l
258.366003,85,1,9.1,7.2,8.3,8.530885,29,9,m
131.5148,85,1,9.1,7.2,8.3,8.530885,29,8,m
105.32906,85,1,9.1,7.2,8.3,8.530885,29,6,l
181.410085,89,1,8.3,6.88237,8.009683,9,22,13,s
17284.28432,85,1,9.5,6.88237,8.5,12,33,0,m
182.895248,89,1,8.3,6.88237,8.009683,9,22,18,m
172.025924,85,1,9.1,7.2,8.3,8.530885,29,26,l
6.534126,85,3,7.5,6.9,7.2,9,10,12,l
1966.76596,87,1,8.3,6.5,7.8,8.530885,10,34,s
3621.715186,80,3,8.6,6.88237,7.3,6,15,0,l
15.506259,50,1,7.3,6.88237,7.1,10,60,7,l
183.32044,85,1,8.2,6.88237,8.009683,6,7,21,m
188.991771,81,1,8.1,7.1,8.1,8.530885,18,15,l
580.093704,85,1,7.8,6.8,7.7,8,24,0,s
155.500531,89,1,8.3,6.88237,8.009683,9,22,38,m
17097.57438,85,1,9.5,6.88237,8.5,12,33,0,m
5019.408322,80,1,8.2,6.88237,8,10,60,0,s
119.505948,86,1,7,5.8,7,8.530885,15,0,s
181.732826,89,1,8.3,6.88237,8.009683,9,22,12,m
488.567606,85,1,7.7,6.6,7.6,8,17,78,s
2725.499726,85,1,7.9,6.88237,7.9,8.530885,35,647,m
130.909399,85,1,9.1,7.2,8.3,8.530885,29,8,m
155.964284,85,1,8.2,6.88237,8.009683,6,7,0,m
53.855284,50,1,6.3,5.6,6.2,8.530885,10,117,s
6440.143791,85,3,9.2,6.88237,8.4,10,25,91,s
3549.112876,80,1,8.30368,6.88237,8.009683,8.530885,26.742663,0,s
400.004944,74,1,7.3,6.88237,8.009683,10,33,119,l
15517.8763,85,1,8.4,6.7,8.2,8,33,4,s
13746.26102,88,1,8.1,6.88237,8.009683,8.530885,48,0,s
6046.111118,60,1,9.1,7,8.8,8.530885,30,10,l
6451.125337,88,1,7.7,6.5,7.7,8,48,12,s
5376.171484,85,1,7.9,6.3,7.9,6,48,6,s
97.061811,85,1,9.1,7.2,8.3,8.530885,29,15,l
119.714338,85,1,9.1,7.2,8.3,8.530885,29,8,l
5402.629233,60,1,9.1,7,8.8,8.530885,30,7,m
3657.19254,80,3,8.6,6.88237,7.3,6,15,0,l
246.41042,87,3,7.8,6.88237,7.9,11,35,0,l
3642.072453,80,3,8.6,6.88237,7.3,6,15,0,l
526.513129,86,1,8.2,6.88237,7.8,9,30,7,s
375.571047,85,1,7.7,6.6,7.6,8,17,0,s
2144.060751,81,1,7.6,6.4,7.3,8.530885,45,2,s
2577.638377,60,1,9.1,7,8.8,8.530885,30,0,m
308.380345,85,1,9.1,7.2,8.3,8.530885,29,7,m
7364.913578,88,1,7.9,6.6,7.9,5,33,33,s
123.113253,85,1,9.1,7.2,8.3,8.530885,29,6,m
1514.31305,85,1,7.3,6.88237,7.3,8.530885,36,4,s
204.773181,85,1,8.2,6.88237,8.009683,6,7,0,m
3668.398589,80,3,8.6,6.88237,7.3,6,15,33,m
330.754356,85,1,8.1,6.88237,8.1,8.530885,26.742663,10,l
176.103802,85,1,9.1,7.2,8.3,8.530885,29,7,m
3483.802296,80,3,8.6,6.88237,7.3,6,15,0,l
414.452107,85,1,7.3,6.4,7.3,8.530885,32,4,s
181.608153,89,1,8.3,6.88237,8.009683,9,22,15,m
1208.117229,81,1,8,6.5,8,8.530885,33,0,s
4093.963053,81,1,8.1,6.88237,8.009683,9,19,0,s
16968.95123,85,1,9.5,6.88237,8.5,12,33,154,l
608.296209,89,1,8.8,7.2,8.5,9,22,8,l
191.295966,85,1,9.1,7.2,8.3,8.530885,29,22,l
52.305498,50,3,7,6.88237,7.2,11,40,8,l
2725.499726,85,1,7.5,6.88237,8.009683,5,40,647,s
227.169595,85,1,8.3,6.9,8.1,8.530885,27,0,s
427.903369,85,1,9.1,7.2,8.3,8.530885,29,7,m
261.577074,85,1,6.6,6.88237,8.009683,8.530885,60,4,s
2811.883581,87,1,8.3,7.3,8.1,9,14,8,s
3200.610148,85,1,8.8,7,8,8,35,0,s
10203.92426,87,1,9.1,7,8.8,8.530885,30,0,s
11184.25294,80,1,9.5,6.88237,8.5,12,33,0,m
97.1705,85,1,9.1,7.2,8.3,8.530885,29,13,l
60.582871,82,1,8.1,6.8,7.9,8.530885,24,22,l
3559.665734,80,3,8.6,6.88237,7.3,6,15,37,m
17038.09463,85,1,9.5,6.88237,8.5,12,33,353,s
6585.64514,80,1,8.3,6.88237,8.1,8.530885,15,0,s
15.426131,85,1,6.4,6.1,8.009683,8.530885,40,0,s
4.738365,50,1,5.3,6.88237,8.009683,7,26.742663,17,s
6305.18245,85,1,7.9,6.4,7.4,8,24,0,s
17028.83707,85,1,9.5,6.88237,8.5,12,33,0,m
17352.40643,85,1,9.5,6.88237,8.5,12,33,6,m
292.630119,85,1,9.1,7.2,8.3,8.530885,29,10,m
16987.7802,85,1,9.5,6.88237,8.5,12,33,0,l
181.710068,89,1,8.3,6.88237,8.009683,9,22,14,m
104.83969,85,1,9.1,7.2,8.3,8.530885,29,7,m
165.118359,85,1,8.2,6.88237,8.009683,6,7,19,m
1544.547546,85,1,9,6.88237,8.5,7,22,0,s
167.04574,81,1,8.1,7.1,8.1,8.530885,18,0,l
579.950229,85,1,9.1,7.2,8.3,8.530885,29,4,m
279.022066,85,1,9.1,7.2,8.3,8.530885,29,8,l
2725.499726,85,3,7.6,6.88237,7.3,8.530885,10,647,s
134.220168,85,1,9.1,7.2,8.3,8.530885,29,5,l
35.835883,85,1,7.9,6.88237,7.9,8.530885,35,9,l
2231.686138,60,1,9.1,7,8.8,8.530885,30,8,m
9378.86458,81,3,9.2,6.88237,8.4,10,25,128,s
17045.77354,85,1,9.5,6.88237,8.5,12,33,11,s
144.176672,85,1,7.5,6.88237,8.009683,5,40,9,s
5907.511422,80,4,7.9,6.88237,7.9,8.530885,26.742663,0,s
19.678641,60,1,8,6.88237,8.7,10,33,35,m
106.868789,85,1,9.1,7.2,8.3,8.530885,29,12,l
9757.578458,88,1,9.1,7.2,8.3,8.530885,29,2,s
26.99196,60,1,7.5,6.88237,7.5,8.530885,26.742663,10,s
2176.048376,60,1,9.1,7,8.8,8.530885,30,0,m
409.92874,85,1,8.3,6.88237,8.1,8.530885,15,31,m
142.016788,85,1,8.3,6.9,8.1,8.530885,27,0,m
923.609251,85,1,8.5,7.7,8.1,9,13,0,s
17641.28954,85,1,9.5,6.88237,8.5,12,33,10,m
149.814754,85,1,9.1,7.2,8.3,8.530885,29,9,l
224.018664,81,1,8.1,7.1,8.1,8.530885,18,0,m
16.68326,85,1,6.9,6.4,6.7,10,44,0,s
326.494436,85,1,5.1,5.7,5.1,8.530885,23,12,s
2109.499972,60,1,9.1,7,8.8,8.530885,30,0,l
195.392952,81,1,8.1,7.1,8.1,8.530885,18,0,m
15729.33293,88,1,8.1,6.88237,8.009683,8.530885,48,20,s
16988.56545,85,1,9.5,6.88237,8.5,12,33,0,m
12359.56572,87,1,8.3,6.88237,8.009683,9,22,0,s
83.660595,82,1,7.6,6.5,7.8,8.530885,13,0,s
92.801093,85,1,9.1,7.2,8.3,8.530885,29,0,l
6031.510961,80,1,7.5,7.4,7.1,8.530885,60,0,s
9729.523911,88,1,7.8,6.88237,7.9,8.530885,35,0,s
56.863901,85,1,8.3,6.9,8.1,8.530885,27,5,m
113.528748,85,1,6.9,6.4,6.9,8.530885,33,5,s
17.771095,50,1,7,6.88237,8.009683,8,21,4,s
8800.454014,81,1,9.5,6.88237,8.5,12,33,8,m
3539.0185,80,1,8.6,6.88237,9.1,8.530885,33,13,l
14185.14013,80,1,8.1,6.88237,8.009683,8.530885,48,0,s
7554.936361,82,1,8.8,7,8,8,35,23.263212,s
1230.662338,89,1,8.4,6.7,8.2,8,33,0,s
107.013361,85,1,9.1,7.2,8.3,8.530885,29,11,s
2744.074649,88,1,7.9,6.7,7.6,6,10,0,s
1041.453474,84,1,7.7,6.6,7.6,8,17,5,m
272.129371,85,1,9.1,7.2,8.3,8.530885,29,10,l
290.949008,85,1,8.4,6.88237,8.5,8.530885,15,12,m
2308.324818,85,1,8.3,6.5,7.8,8.530885,10,0,s
9420.109113,81,1,8.4,6.7,8.2,8,33,0,s
249.383208,85,1,8.4,6.88237,8.5,8.530885,15,9,m
51.41343,60,1,7.8,6.5,7.3,8.530885,20,12,m
23.055193,83,1,7.9,6.3,7.6,6,24,8,m
1794.715998,60,1,9.1,7,8.8,8.530885,30,7,l
148.828902,85,1,7.4,6.3,7.2,10,56,21,s
181.638082,89,1,8.3,6.88237,8.009683,9,22,12,m
81.793941,85,1,9.1,7.2,8.3,8.530885,29,11,l
16992.82418,85,1,9.5,6.88237,8.5,12,33,0,l
191.917494,81,1,8.1,7.1,8.1,8.530885,18,7,l
181.264122,89,1,8.3,6.88237,8.009683,9,22,9,l
14629.299,85,1,8.1,6.6,7.6,9,13,0,s
3166.208366,85,1,8.7,7.7,7.8,6,30,0,s
351.314936,81,1,7,6.88237,8.009683,5,19,0,s
4395.570624,83,1,9.1,7.2,8.3,8.530885,29,0,s
161.747759,85,1,7,5.8,7,8.530885,15,11,s
10829.26782,80,1,9.5,6.88237,8.5,12,33,0,s
254.917771,85,1,8.3,7.3,8.1,9,14,6,s
8402.413989,88,1,8.5,6.88237,8.3,11,70,5,s
3482.852224,80,3,8.6,6.88237,7.3,6,15,0,l
90.952209,85,1,9.1,7.2,8.3,8.530885,29,7,m
98.131302,82,1,8.1,6.8,7.9,8.530885,24,9,m
3572.163656,80,1,7.6,6.4,7.3,8.530885,45,6,s
475.474483,85,1,9.1,7.2,8.3,8.530885,29,0,s
133.49665,60,1,7.8,6.5,7.3,8.530885,20,11,m
235.833018,89,1,8.8,7.2,8.5,9,22,13,l
130.121786,60,1,7.8,6.5,7.3,8.530885,20,11,s
729.653929,85,1,7.8,6.8,7.7,8,24,0,s
263.353313,60,1,9.1,7,8.8,8.530885,30,9,m
182.968542,89,1,8.3,6.88237,8.009683,9,22,8,s
17657.4644,85,1,8.3,6.88237,8.3,11,40,11,m
51.08305,85,3,7.5,6.9,7.2,9,10,8,l
188.897309,89,1,8.8,7.2,8.5,9,22,7,l
10574.53137,81,1,8.5,6.88237,8.5,11,25,0,s
43.541425,82,1,7.1,6.4,7.1,8.530885,25,8,s
2517.773741,60,1,9.1,7,8.8,8.530885,30,9,m
1931.90141,87,1,7.8,6.1,7.8,10,33,0,s
100.830693,85,1,9.1,7.2,8.3,8.530885,29,9,m
6472.209936,88,1,7.2,6.88237,7.2,10,20,5,s
7346.686454,88,1,9.1,7.2,8.3,8.530885,29,0,s
2725.499726,86,1,7,5.8,7,8.530885,15,647,l
606.307873,73,1,7.8,6.88237,7.3,7,22,9,s
2167.777415,73,1,8.5,6.88237,8.009683,11,26.742663,57,s
2725.499726,85,1,8.2,6.88237,8.009683,6,7,647,m
97.554936,85,1,9.1,7.2,8.3,8.530885,29,7,l
137.284335,85,1,9.1,7.2,8.3,8.530885,29,7,m
2725.499726,85,1,7.9,6.88237,7.9,8.530885,35,647,m
267.626386,85,1,8.4,6.88237,8.5,8.530885,15,0,l
178.303806,81,1,8.1,7.1,8.1,8.530885,18,26,m
131.66354,85,1,9.1,7.2,8.3,8.530885,29,8,s
107.004949,85,1,9.1,7.2,8.3,8.530885,29,7,l
176.115976,85,1,9.1,7.2,8.3,8.530885,29,7,m
72.511598,60,1,7.8,6.5,7.3,8.530885,20,12,l
179.936282,85,1,7.4,6.88237,7.4,8.530885,60,11,s
117.544518,85,1,9.1,7.2,8.3,8.530885,29,7,m
12460.63054,85,1,7.6,5.4,7.7,8.530885,30,21,s
3629.077944,80,3,8.6,6.88237,7.3,6,15,18,s
135.273991,85,1,6.7,6.3,6.6,8.530885,22,34,s
2393.12022,85,1,9.1,7.2,8.3,8.530885,29,32,s
134.434672,85,1,9.1,7.2,8.3,8.530885,29,7,l
716.161348,88,1,7.4,6.88237,8.009683,8.530885,26,23.263212,s
6250.039602,80,1,9.1,7.2,8.3,8.530885,29,10,m
52.489684,88,1,8,6.6,7.4,8.530885,33,0,l
7209.562621,88,1,8.1,6.88237,8.3,9,45,0,s
116.694196,85,1,9.1,7.2,8.3,8.530885,29,8,m
11155.88681,80,1,9.5,6.88237,8.5,12,33,32,m
8932.840619,81,1,8.8,7.2,8.5,9,22,3,s
877.949031,89,1,8.3,6.88237,8.009683,9,22,0,s
17957.78027,85,1,8.3,6.88237,8.009683,9,22,4,s
5931.634888,80,1,9.1,7.2,8.3,8.530885,29,24,m
83.355096,85,1,8.1,6.88237,8,8.530885,30,205,l
3776.037028,80,1,8.6,6.88237,9.1,8.530885,33,10,l
106.540129,85,1,9.1,7.2,8.3,8.530885,29,16,m
423.375406,85,1,9.1,7.2,8.3,8.530885,29,2,l
102.689729,85,1,9.1,7.2,8.3,8.530885,29,9,l
9466.934108,88,1,7.9,6.4,7.4,8,24,0,s
11.708588,85,1,6.6,6.2,6.6,5,14,100,s
44.18786,89,1,8.8,7.2,8.5,9,22,50,l
465.879233,85,1,8.2,6.88237,8.009683,6,7,7,m
96.081275,60,1,7.8,6.5,7.3,8.530885,20,9,l
2148.257425,85,1,9,6.88237,8.5,7,22,55,m
1140.497225,75,1,8.30368,6.88237,8.009683,5,26.742663,10,s
4685.05001,60,1,9.1,7,8.8,8.530885,30,9,m
263.839072,60,1,9.1,7,8.8,8.530885,30,6,l
116.911504,85,1,9.1,7.2,8.3,8.530885,29,7,m
11.110215,85,1,6.2,5.8,6.2,8,15,0,s
93.667417,85,1,7.7,6.88237,8.009683,8.530885,40,80,s
5039.782921,60,1,9.1,7,8.8,8.530885,30,12,l
45.206229,83,1,6.8,6.88237,6.8,7,50,25,s
171.726082,85,1,8.3,6.9,8.1,8.530885,27,3,m
151.940003,83,3,8.2,6.5,8.1,9,33,11,s
181.757524,89,1,8.3,6.88237,8.009683,9,22,20,l
12979.03155,82,1,8.2,6.88237,8.009683,8,25,14,s
5111.667538,88,1,9,6.88237,8.5,7,22,0,s
97.266473,85,1,8.3,6.9,8.1,8.530885,27,0,m
192.733662,81,1,8.1,7.1,8.1,8.530885,18,15,l
57.85585,82,1,7,6.88237,8.009683,8,15,0,s
5196.439478,60,1,9.1,7,8.8,8.530885,30,5,s
169.630447,85,1,8.2,6.88237,8.009683,6,7,0,m
142.257543,89,1,8.3,6.88237,8.009683,9,22,11,l
10556.97405,87,1,9.1,7,8.8,8.530885,30,15,s
129.782431,85,1,9.1,7.2,8.3,8.530885,29,8,m
268.424432,50,3,7.7,6.88237,7.8,9,20,85,s
14543.82971,85,1,8.1,6.88237,7.5,9,38,6,s
9850.149028,88,1,8.8,7,8,8,35,0,s
323.550508,85,1,9.1,7.2,8.3,8.530885,29,7,m
105.555093,89,1,8.3,6.88237,8.009683,9,22,9,m
338.317483,85,1,8.1,6.88237,8.3,9,45,8,m
148.273789,85,1,9.1,7.2,8.3,8.530885,29,13,l
74.202343,60,1,7.8,6.5,7.3,8.530885,20,8,m
265.880074,60,1,7.8,5.7,7.2,8.530885,18,156,m
28.296078,74,3,7.1,6.88237,8.009683,9,15,157,m
97.379406,85,1,9.1,7.2,8.3,8.530885,29,9,l
527.943055,86,1,7.5,6.88237,8.009683,6,57,23.263212,s
2575.613955,85,1,8.8,7,8,8,35,100,s
80.634718,85,1,7,6.88237,7,8.530885,34,0,s
90.807914,89,1,6.8,6.88237,8.009683,8.530885,93,13,l
1709.307251,60,1,9.1,7,8.8,8.530885,30,11,l
2026.357326,85,1,9,6.88237,8.5,7,22,0,m
17473.09014,85,1,9.5,6.88237,8.5,12,33,0,s
74.264848,60,1,7.8,6.5,7.3,8.530885,20,8,l
7352.848905,81,1,8.8,7.2,8.5,9,22,0,m
179.255399,81,1,8.1,7.1,8.1,8.530885,18,16,m
118.013203,85,1,9.1,7.2,8.3,8.530885,29,10,m
2050.255042,85,1,7.9,6.6,7.9,5,33,0,s
11165.44012,80,1,9.5,6.88237,8.5,12,33,6,m
3634.470249,80,3,8.6,6.88237,7.3,6,15,25,m
356.956126,87,1,8.7,7.7,7.8,6,30,68,l
203.770906,89,1,8.2,6.88237,8.009683,8,25,8,m
81.415658,60,1,7.9,6.88237,8.009683,8.530885,26.742663,56,s
258.534414,85,1,9.1,7.2,8.3,8.530885,29,11,l
52.747055,50,1,7.1,6.88237,7.1,10,26.742663,0,m
10645.09725,80,1,9.5,6.88237,8.5,12,33,0,m
4024.360651,88,1,8.2,6.88237,8.009683,8,32,5,s
258.667067,60,1,9.1,7,8.8,8.530885,30,15,l
153.022498,85,1,9.1,7.2,8.3,8.530885,29,0,l
16494.66448,85,1,8,6.6,7.3,7,46,0,s
2725.499726,85,1,8.3,6.88237,8.1,8.530885,15,647,m
6428.555328,88,1,9.5,6.88237,8.5,12,33,0,s
9839.31789,80,1,8.4,6.7,8.2,8,33,5,s
7054.591888,73,1,8.3,6.88237,8.6,12,25,15,s
16769.79728,89,1,9.1,7,8.8,8.530885,30,0,s
13235.42751,89,1,9.1,7.2,8.3,8.530885,29,10,m
2210.210654,87,1,9,6.88237,8.5,7,22,0,s
855.670386,89,1,8.2,6.88237,8.009683,8,25,23.263212,s
596.610587,85,1,9.1,7.2,8.3,8.530885,29,10,m
221.750633,60,1,7.7,6.1,7.2,8.530885,20,7,l
44.100435,60,1,7.8,6.5,7.3,8.530885,20,5,m
114.591423,89,1,8.3,6.88237,8.009683,9,22,14,s
11896.71755,87,1,9.1,7,8.8,8.530885,30,5,s
10821.54329,80,1,9.5,6.88237,8.5,12,33,0,m
1595.416552,82,1,8.1,6.8,7.9,8.530885,24,0,s
1079.029966,73,1,7.8,6.7,7.9,6,33,0,s
113.548662,81,1,7.3,6.88237,8.009683,7,20,5,s
6510.528609,83,1,8.8,7,8,8,35,0,s
45.84331,88,9,6.2,6.88237,6.5,8,26.742663,21,s
17339.82809,85,1,9.5,6.88237,8.5,12,33,15,s
9258.739502,81,3,8.6,6.88237,7.3,6,15,7,l
248.755428,85,1,7.7,6.88237,7.7,8.530885,26.742663,10,m
3663.498995,80,1,8.6,6.88237,9.1,8.530885,33,8,l
11.842508,84,1,7.1,6.1,7.1,8.530885,32,0,l
459.053327,85,1,7.9,6.88237,7.9,8.530885,35,7,s
4700.844362,60,1,9.1,7,8.8,8.530885,30,6,m
351.705022,85,1,9.1,7.2,8.3,8.530885,29,17,m
7456.87986,81,1,8.3,6.88237,8.009683,9,22,10,m
153.789352,85,1,7,6.1,6.8,8.530885,10,0,s
4810.579351,85,1,7.6,6.88237,7.6,8.530885,25,41,s
130.679001,85,1,9.1,7.2,8.3,8.530885,29,7,s
695.90674,85,1,7.8,6.8,7.7,8,24,222,m
1209.231303,87,1,7.9,6.6,7.6,6,33,15,s
268.576345,60,1,7.8,5.7,7.2,8.530885,18,7,l
15.669693,84,1,7.1,6.1,7.1,8.530885,32,13,m
3748.265143,80,1,6.5,6.88237,8.009683,8.530885,10,6,s
7387.578491,81,1,8.8,7.2,8.5,9,22,13,m
13.964721,84,1,7.1,6.1,7.1,8.530885,32,0,m
3598.108074,80,3,8.6,6.88237,7.3,6,15,0,s
654.698049,81,1,8.1,7.1,8.1,8.530885,18,9,m
161.132636,86,1,8.3,6.5,7.8,8.530885,10,0,l
97.592569,85,1,9.1,7.2,8.3,8.530885,29,7,l
147.611901,85,1,9.1,7.2,8.3,8.530885,29,32,l
186.441544,89,1,8.3,6.88237,8.009683,9,22,9,m
556.075777,85,1,9.1,7.2,8.3,8.530885,29,6,m
13203.25701,89,1,9.1,7.2,8.3,8.530885,29,4,m
2282.168094,60,1,7.7,6.1,7.2,8.530885,20,0,s
437.211441,50,1,6.8,6.88237,8.009683,8,14,0,s
230.008428,85,1,8.4,6.88237,8.5,8.530885,15,16,l
10686.65757,88,1,8.1,6.88237,8.009683,9,19,0,s
536.981169,85,1,9.1,7.2,8.3,8.530885,29,6,m
354.661462,86,1,8.8,7,8,8,35,7,l
653.70386,85,1,9.1,7.2,8.3,8.530885,29,5,m
14804.40097,89,1,9.1,7.2,8.3,8.530885,29,23.263212,s
2415.757987,88,1,8.2,6.88237,8.009683,8,32,7,s
543.766925,85,1,9.1,7.2,8.3,8.530885,29,5,m
164.561536,86,1,8.3,6.5,7.8,8.530885,10,0,l
125.707249,85,1,9.1,7.2,8.3,8.530885,29,9,m
1619.33799,60,1,9.1,7,8.8,8.530885,30,7,l
115.795275,85,1,7.1,6.88237,8.009683,8.530885,26.742663,0,s
3137.219223,87,1,9,6.88237,8.5,7,22,0,s
390.334602,85,1,9.1,7.2,8.3,8.530885,29,0,m
285.042331,85,1,6.7,6.88237,8.009683,8.530885,10,0,s
268.771404,60,1,7.8,5.7,7.2,8.530885,18,13,l
86.774417,86,1,9,6.88237,8.5,7,22,10,l
183.757118,89,1,8.3,6.88237,8.009683,9,22,5,s
179.496055,81,1,8.1,7.1,8.1,8.530885,18,11,m
3988.499488,80,1,8.6,6.88237,9.1,8.530885,33,0,m
6026.660283,85,1,7.7,6.4,7.9,8.530885,33,0,s
13742.32898,89,1,8.1,6.88237,8.3,9,45,0,s
3512.936154,80,3,8.6,6.88237,7.3,6,15,107,l
10165.87757,89,1,8.1,7.1,8.1,8.530885,18,0,s
2725.499726,85,1,7.8,6.3,7.6,7,33,647,s
199.613707,85,1,9.1,7.2,8.3,8.530885,29,10,m
767.844657,85,1,7.8,6.8,7.7,8,24,66,s
138.070147,50,3,7.7,6.88237,7.8,9,20,22,s
262.995681,88,1,7.7,6.5,7.5,8.530885,14,23,s
65.041449,89,1,8,6.7,7.9,8,39,9,m
181.677739,60,1,7.7,6.1,7.2,8.530885,20,7,s
221.919913,60,1,7.7,6.1,7.2,8.530885,20,13,m
1902.230268,81,1,7.6,7,7.8,8.530885,17,0,s
8530.546702,88,1,9.1,7.2,8.3,8.530885,29,0,s
181.453857,89,1,8.3,6.88237,8.009683,9,22,11,m
369.76459,85,1,7.7,6.88237,7.7,8.530885,26.742663,191,s
21.729075,85,3,7.5,6.9,7.2,9,10,4,s
246.953559,85,1,8.4,6.88237,8.5,8.530885,15,0,m
30.027572,82,1,7.3,6.88237,8.009683,8.530885,57,0,s
130.313239,85,1,9.1,7.2,8.3,8.530885,29,6,m
30.81364,50,1,7,6.88237,8.009683,8,21,5,m
279.25035,85,1,9.1,7.2,8.3,8.530885,29,10,l
117.994034,85,1,9.1,7.2,8.3,8.530885,29,7,s
323.965328,85,1,9.1,7.2,8.3,8.530885,29,6,m
94.436489,89,1,8.2,6.88237,8.009683,8,25,24,m
288.365515,85,1,8.4,6.88237,8.5,8.530885,15,79,m
58.653832,83,3,7.5,6.88237,8.009683,9,20,18,m
252.012399,85,1,8.3,6.9,8.1,8.530885,27,0,s
652.680983,88,1,6.1,5.6,5.8,8.530885,20,0,s
299.233857,85,1,9.1,7.2,8.3,8.530885,29,6,l
344.008795,85,3,7.5,6.9,7.2,9,10,0,s
71.877688,85,1,8.3,6.9,8.1,8.530885,27,8,m
4256.067755,85,1,8.8,7,8,8,35,24,s
5409.231208,60,1,8.4,6.9,8.5,8.530885,34,10,s
9149.813687,81,1,9.5,6.88237,8.5,12,33,0,m
66.303963,89,1,8.8,7.2,8.5,9,22,0,m
181.775761,89,1,8.3,6.88237,8.009683,9,22,0,l
5207.379584,85,3,9.2,6.88237,8.4,10,25,5,s
104.581692,85,1,6.6,6.88237,6.6,8.530885,20,0,s
63.551204,85,3,7.5,6.9,7.2,9,10,7,m
261.939275,60,1,9.1,7,8.8,8.530885,30,8,l
118.894846,85,1,9.1,7.2,8.3,8.530885,29,9,l
1825.739345,60,1,9.1,7,8.8,8.530885,30,8,m
1189.553621,85,3,6.8,6.3,6.9,8.530885,20,7,s
2059.996519,86,1,9.1,7.2,8.3,8.530885,29,12,s
2986.284806,81,1,9.1,7.2,8.3,8.530885,29,23.263212,s
272.170355,89,1,8.8,7.2,8.5,9,22,10,l
10126.17164,88,1,8.1,6.88237,8.009683,9,19,0,s
2551.235127,60,1,9.1,7,8.8,8.530885,30,6,m
13302.27292,89,1,9.1,7.2,8.3,8.530885,29,0,m
93.91293,85,1,9.1,7.2,8.3,8.530885,29,6,m
19.506801,85,1,7.9,6.88237,7.9,8.530885,35,0,l
6.444238,85,3,7.5,6.9,7.2,9,10,7,m
763.343355,85,1,8.5,7.7,8.1,9,13,0,s
2303.476519,88,3,9.2,6.88237,8.4,10,25,9,s
1974.593935,60,1,9.1,7,8.8,8.530885,30,0,l
83.242629,85,1,8.1,6.88237,8,8.530885,30,0,m
2051.303896,60,1,9.1,7,8.8,8.530885,30,6,m
1390.275034,87,1,7.8,6.1,7.8,10,33,8,s
49.308756,83,3,7.5,6.88237,8.009683,9,20,12,m
404.878466,82,1,7.1,6.88237,8.009683,8.530885,36,9,s
3951.799942,89,1,8,6.6,7.3,7,46,0,s
418.10914,85,1,9.1,7.2,8.3,8.530885,29,3,l
206.534194,88,1,7.6,5.4,7.7,8.530885,30,9,m
4513.533978,85,1,8.6,6.88237,9.1,8.530885,33,8,s
618.437028,60,1,9.1,7,8.8,8.530885,30,16,l
100.670224,85,1,9.1,7.2,8.3,8.530885,29,7,m
271.181436,85,1,8.3,6.88237,8.009683,10,40,0,s
5170.441746,89,1,7.3,6.88237,8.009683,8.530885,28,20,s
26.173357,85,1,7,6.88237,7,8.530885,26.742663,25,s
124.745724,85,1,9.1,7.2,8.3,8.530885,29,11,m
118.253135,88,1,7.6,5.4,7.7,8.530885,30,0,l
2617.136827,88,3,9.2,6.88237,8.4,10,25,6,s
865.485443,85,1,8.5,7.7,8.1,9,13,0,s
508.359058,50,1,7.8,6.88237,7.3,7,22,0,s
17771.3674,89,1,9.1,7,8.8,8.530885,30,8,s
3957.168078,85,3,8.2,6.5,8.1,9,33,100,s
16392.1542,87,1,8.1,6.88237,8.009683,8.530885,48,14,s
1965.902593,60,1,9.1,7,8.8,8.530885,30,13,l
172.11826,81,1,8.1,7.1,8.1,8.530885,18,12,m
1389.409994,60,1,7.8,6.88237,8.009683,5,24,4,s
1784.083145,60,1,9.1,7,8.8,8.530885,30,5,m
212.195044,85,1,9.1,7.2,8.3,8.530885,29,18,l
40.538052,50,1,7,6.88237,8.009683,8,21,4,m
3966.657849,81,1,8.1,6.8,7.9,8.530885,24,24,s
237.409397,85,1,8.4,6.88237,8.5,8.530885,15,218,m
1264.34584,82,1,7.4,6.88237,8.009683,8.530885,39,0,s
259.888034,60,1,9.1,7,8.8,8.530885,30,7,m
15.277346,84,1,7.1,6.1,7.1,8.530885,32,0,m
109.529514,86,1,8.3,6.5,7.8,8.530885,10,0,m
592.67637,87,1,8.2,6.88237,8.009683,8,32,23.263212,s
240.292127,85,1,9.1,7.2,8.3,8.530885,29,10,l
10645.09725,80,1,9.5,6.88237,8.5,12,33,0,m
121.779615,85,1,8.1,6.88237,8,8.530885,30,0,m
1799.130184,60,1,9.1,7,8.8,8.530885,30,8,l
459.021793,82,1,7.7,6.88237,8.009683,7,10,7,s
81.77196,84,1,7.4,6.88237,8.009683,8.530885,34,20,s
345.265987,85,1,9.1,7.2,8.3,8.530885,29,6,m
2209.464444,82,1,6.4,6.88237,8.009683,8.530885,11,0,s
2725.499726,80,1,8.3,6.88237,7.6,8.530885,26.742663,647,m
419.023806,89,1,8.2,6.88237,8.009683,8,25,23.263212,s
9247.84181,88,1,9.5,6.88237,8.5,12,33,0,m
123.357763,85,1,9.1,7.2,8.3,8.530885,29,7,l
198.184423,85,1,9.1,7.2,8.3,8.530885,29,27,l
643.70807,74,1,7.3,6.88237,8.009683,10,33,353,s
2725.499726,85,1,7,6.88237,7,8.530885,26.742663,647,m
4503.469753,85,3,8.6,6.88237,7.3,6,15,69,s
16.536716,85,1,7.1,6.88237,7.1,8.530885,26.742663,0,s
320.390111,86,1,7.7,6.6,7.6,8,17,13,m
68.902958,60,3,7.8,6.5,7.5,11,28,10,m
228.332249,86,1,7.5,6.4,7.5,6,33,27,s
203.253083,85,1,9.1,7.2,8.3,8.530885,29,10,l
3616.477296,85,1,7.4,6.3,7.4,6,73,0,s
88.957281,85,1,8.1,6.88237,8,8.530885,30,5,m
202.476859,85,1,7.4,6.6,7.4,10,66,12,s
9691.636096,88,1,8.2,6.88237,8.009683,8,25,12,s
6571.620978,88,1,8.1,7.3,8.2,8.530885,10,0,s
3409.494589,88,3,9.2,6.88237,8.4,10,25,0,m
6379.834478,60,1,9.1,7,8.8,8.530885,30,0,m
834.020739,85,3,7.5,6.9,7.2,9,10,44,s
1678.092508,85,1,8.1,6.88237,8,8.530885,30,270,m
142.198358,84,1,7.6,6.88237,8.009683,7,32,0,s
3470.515394,88,1,7.7,6.88237,7.8,8.530885,35,0,s
6125.558162,80,1,9.1,7.2,8.3,8.530885,29,8,m
264.257297,85,1,6.9,6.88237,6.9,8.530885,30,22,s
120.22644,85,1,9.1,7.2,8.3,8.530885,29,7,m
880.435963,88,1,8.8,8.2,8.6,9,20,23,s
128.650479,85,1,9.1,7.2,8.3,8.530885,29,5,m
251.26807,60,1,9.1,7,8.8,8.530885,30,0,s
418.46893,84,1,7.6,7.2,7.6,8.530885,28,0,s
3552.455581,80,3,8.6,6.88237,7.3,6,15,0,l
261.169579,60,1,9.1,7,8.8,8.530885,30,7,m
17285.00397,85,1,9.5,6.88237,8.5,12,33,8,s
5812.811767,85,3,9.2,6.88237,8.4,10,25,100,s
402.737987,85,1,9.1,7.2,8.3,8.530885,29,0,m
44.55775,85,1,7.5,6.88237,8.009683,5,40,10,m
272.993163,85,1,8.4,6.88237,8.5,8.530885,15,0,l
1912.668264,89,1,8,6.7,7.9,8,39,0,s
115.302061,85,1,9.1,7.2,8.3,8.530885,29,14,l
97.243296,85,1,9.1,7.2,8.3,8.530885,29,13,l
105.80347,50,3,7.7,6.88237,7.8,9,20,7,m
10602.7023,80,1,8.3,6.88237,8.3,11,40,9,m
269.593623,85,1,9.1,7.2,8.3,8.530885,29,26,l
13.870414,85,1,7.1,6.88237,7.1,8.530885,26.742663,8,s
9707.986355,81,1,8.8,7,8,8,35,0,s
16982.89132,85,1,9.5,6.88237,8.5,12,33,0,s
17079.05518,85,1,9.5,6.88237,8.5,12,33,0,m
147.305023,85,1,7.6,6.88237,7.3,8.530885,74,10,s
274.104219,85,1,9.1,7.2,8.3,8.530885,29,10,l
98.906792,86,1,8.3,6.5,7.8,8.530885,10,16,l
91.643511,85,1,9.1,7.2,8.3,8.530885,29,5,l
183.21338,89,1,8.3,6.88237,8.009683,9,22,11,s
97.462887,85,1,9.1,7.2,8.3,8.530885,29,10,l
259.421282,60,1,7.7,6.1,7.2,8.530885,20,18,m
181.458913,89,1,8.3,6.88237,8.009683,9,22,15,s
9072.21241,77,1,9.1,7,8.8,8.530885,30,0,s
189.74021,81,1,8.1,7.1,8.1,8.530885,18,15,l
124.125989,85,1,9.1,7.2,8.3,8.530885,29,5,l
132.164266,85,1,9.1,7.2,8.3,8.530885,29,7,m
3793.865558,80,1,8.2,8.2,8.3,6,25,0,s
135.226865,85,1,8.2,6.88237,8.009683,6,7,27,m
194.670833,85,1,8.2,6.88237,8.009683,6,7,0,m
282.958363,86,1,7.1,6.3,7.1,9,9,62,s
10682.38057,88,3,8.2,6.5,8.1,9,33,4,s
536.634558,60,1,9.1,7,8.8,8.530885,30,4,m
149.546047,85,1,9.1,7.2,8.3,8.530885,29,19,l
201.459035,85,1,8.3,6.88237,7.6,8.530885,26.742663,0,m
5737.741559,80,1,7.8,6.88237,7.9,8.530885,35,0,s
94.425752,85,1,9.1,7.2,8.3,8.530885,29,14,l
3774.672946,80,3,8.6,6.88237,7.3,6,15,12,l
3597.172563,80,1,7.6,6.5,7.8,8.530885,13,6,s
3618.072678,89,1,6.9,6.2,7,8.530885,10,20,s
6565.619607,85,3,7.7,6,7.2,9,2,7,s
5682.741661,60,1,9.1,7,8.8,8.530885,30,5,m
115.714539,88,1,7.7,6.88237,7.7,8.530885,60,0,s
3506.931637,81,1,8.1,6.88237,8.009683,9,19,0,s
133.290575,89,1,8.8,7.2,8.5,9,22,6,l
5747.92045,81,1,8.1,7.1,8.1,8.530885,18,9,s
613.658764,85,1,7.5,6.88237,8.009683,5,40,0,s
209.08817,85,1,8.2,6.88237,8.009683,6,7,0,s
9978.271199,88,1,8.2,6.88237,8.009683,8,25,0,s
664.44792,60,1,9.1,7,8.8,8.530885,30,7,l
105.396602,85,1,8.2,6.88237,8.2,8.530885,26.742663,0,l
712.97494,60,1,9.1,7,8.8,8.530885,30,13,s
418.903222,60,1,7.7,6.1,7.2,8.530885,20,0,m
59.777319,60,1,7.8,6.5,7.3,8.530885,20,9,s
94.352233,73,1,8.5,6.88237,8.009683,11,26.742663,34,l
135.293984,85,1,9.1,7.2,8.3,8.530885,29,14,l
88.979082,60,1,9.1,7,8.8,8.530885,30,7,m
284.136931,85,1,7.7,6.88237,7.7,8.530885,30,0,s
249.892458,85,1,6.9,6.4,6.9,8.530885,33,0,s
62.216901,83,3,7.5,6.88237,8.009683,9,20,12,l
186.653798,60,1,9.1,7,8.8,8.530885,30,8,l
149.393698,85,1,9.1,7.2,8.3,8.530885,29,11,l
7232.634016,81,3,8.6,6.88237,7.3,6,15,18,l
689.131886,87,3,9.2,6.88237,8.4,10,25,0,m
181.626811,60,1,7.7,6.1,7.2,8.530885,20,8,s
16.468808,88,3,5.2,6.88237,5.2,7,15,13,m
98.2993,85,1,8.3,6.9,8.1,8.530885,27,6,m
2725.499726,89,1,8.30368,6.88237,8.009683,8.530885,26.742663,647,s
7234.973415,81,1,8.8,7.2,8.5,9,22,10,m
3659.662059,80,1,8.6,6.88237,9.1,8.530885,33,21,m
215.603936,85,1,9.1,7.2,8.3,8.530885,29,8,m
6105.321207,80,1,8.1,6.8,7.9,8.530885,24,11,s
4310.663651,80,1,7.7,6.5,7.5,8.530885,14,0,s
3563.920754,80,3,8.6,6.88237,7.3,6,15,0,m
1002.137665,85,1,8.2,6.88237,7.8,9,30,0,s
4791.43512,60,1,9.1,7,8.8,8.530885,30,10,m
91.003687,85,1,9.1,7.2,8.3,8.530885,29,8,m
12116.4999,89,1,9,6.88237,8.5,7,22,0,m
3886.402212,80,3,8.6,6.88237,7.3,6,15,15,l
3486.189065,60,1,9.1,7,8.8,8.530885,30,13,s
14581.53755,71,3,9.2,6.88237,8.4,10,25,11,s
949.280762,85,1,8.2,6.88237,7.8,9,30,0,s
107.265897,85,1,9.1,7.2,8.3,8.530885,29,5,l
267.240809,85,1,8.4,6.88237,8.5,8.530885,15,0,l
2504.625775,88,1,7.6,6.88237,8.009683,8,33,41,s
14269.21278,88,1,8.1,6.88237,8.009683,8.530885,48,23.263212,s
80.516804,85,1,9.1,7.2,8.3,8.530885,29,5,l
261.259666,60,1,9.1,7,8.8,8.530885,30,10,l
66.558639,89,1,8.8,7.2,8.5,9,22,14,l
90.58344,85,1,9.1,7.2,8.3,8.530885,29,6,m
10289.4488,81,1,8.3,6.88237,8.3,11,40,55,s
134.494189,85,1,9.1,7.2,8.3,8.530885,29,7,l
4875.018282,88,1,8.4,6.88237,8.3,11,15,12,s
131.708728,85,1,9.1,7.2,8.3,8.530885,29,8,m
17028.91927,85,1,9.5,6.88237,8.5,12,33,15,s
161.036604,82,1,8.1,6.8,7.9,8.530885,24,22,m
83.242629,85,1,8.1,6.88237,8,8.530885,30,0,l
11871.22257,88,1,7.7,6.88237,8.009683,7,10,3,s
4498.947702,80,3,9.2,6.88237,8.4,10,25,7,m
69.431881,89,1,8.8,7.2,8.5,9,22,13,l
611.403409,85,1,7.8,6.8,7.7,8,24,445,s
41.251441,60,1,7.8,6.5,7.3,8.530885,20,6,m
11.92285,84,1,7.1,6.1,7.1,8.530885,32,0,m
147.290587,83,1,6.5,6.88237,6.5,8.530885,33,0,s
260.783587,60,1,9.1,7,8.8,8.530885,30,9,l
551.131443,60,1,9.1,7,8.8,8.530885,30,67,s
181.575236,89,1,8.3,6.88237,8.009683,9,22,11,m
41.836401,85,1,8.3,6.88237,8.1,8.530885,15,0,m
323.900379,85,1,9.1,7.2,8.3,8.530885,29,6,l
125.205971,85,1,9.1,7.2,8.3,8.530885,29,9,m
2108.020592,60,1,9.1,7,8.8,8.530885,30,0,m
9247.475929,88,1,7.9,6.4,7.4,8,24,0,s
89.071255,85,1,8.1,6.88237,8,8.530885,30,14,s
259.505816,60,1,9.1,7,8.8,8.530885,30,8,l
131.547814,40,1,5.5,6.88237,5.5,6,33,7,s
13213.11857,89,1,9.1,7.2,8.3,8.530885,29,10,m
121.280839,85,1,9.1,7.2,8.3,8.530885,29,7,l
10729.84419,81,1,9.5,6.88237,8.5,12,33,5,s
5397.868813,85,1,7.9,6.88237,7.9,9,47,4,s
258.968403,60,1,9.1,7,8.8,8.530885,30,10,l
389.206881,85,1,9.1,7.2,8.3,8.530885,29,24,m
2581.218091,60,1,9.1,7,8.8,8.530885,30,0,m
2750.328102,85,1,8.7,7.7,7.8,6,30,0,s
16961.09113,85,1,9.5,6.88237,8.5,12,33,15,s
215.144764,85,1,9.1,7.2,8.3,8.530885,29,8,l
1719.171672,60,1,9.1,7,8.8,8.530885,30,6,m
37.62733,82,3,7,5.8,7.1,8.530885,25,14,l
968.556926,85,1,8.2,6.88237,8.009683,6,7,67,s
1815.234504,60,1,9.1,7,8.8,8.530885,30,7,m
176.8081,85,1,8.3,6.88237,8.1,8.530885,15,0,m
116.926841,84,1,8,6.4,7.9,6,33,9,m
465.157559,85,1,8.1,6.88237,8.3,9,45,37,s
8241.481676,87,1,8.1,7.1,8.1,8.530885,18,0,s
98.79173,85,1,8.3,6.9,8.1,8.530885,27,8,m
2447.721425,60,1,9.1,7,8.8,8.530885,30,0,m
50.141304,82,1,8.1,6.8,7.9,8.530885,24,21,m
152.062371,85,1,8.2,6.88237,8.009683,6,7,10,l
431.017253,85,1,9.1,7.2,8.3,8.530885,29,5,m
183.824995,89,1,8.3,6.88237,8.009683,9,22,0,s
777.724701,84,1,7.5,6.88237,7.5,9,10,9,s
83.848615,82,1,7.6,6.5,7.8,8.530885,13,12,s
57.677808,83,3,7.5,6.88237,8.009683,9,20,11,m
3572.891098,80,1,8.6,6.88237,9.1,8.530885,33,6,m
1650.986699,85,1,8.4,6.88237,8.3,11,15,0,s
4215.160072,85,1,7.9,6.6,7.6,6,33,72,s
5021.688146,80,1,7.5,6.4,7.3,8.530885,71,6,s
89.963987,85,1,9.1,7.2,8.3,8.530885,29,8,l
49.568822,82,1,8.1,6.8,7.9,8.530885,24,17,l
1416.076629,86,1,9,6.88237,8.5,7,22,29,s
79.673744,60,1,7.8,6.5,7.3,8.530885,20,12,m
115.37429,85,1,9.1,7.2,8.3,8.530885,29,19,l
1110.38909,85,1,9.1,7.2,8.3,8.530885,29,16,s
1170.51954,85,1,8.3,6.9,8.1,8.530885,27,0,s
3627.125676,85,1,7.6,6.88237,8.009683,7,32,69,s
2516.668458,60,1,9.1,7,8.8,8.530885,30,5,s
115.873207,85,1,9.1,7.2,8.3,8.530885,29,16,l
6306.34133,80,1,9.1,7.2,8.3,8.530885,29,11,m
39.891387,85,1,7.9,6.88237,7.9,8.530885,35,73,l
10925.67219,88,1,9.5,6.88237,8.5,12,33,0,s
5646.291185,85,3,9.2,6.88237,8.4,10,25,0,s
224.255466,85,1,9.1,7.2,8.3,8.530885,29,8,l
121.190344,86,1,7,5.8,7,8.530885,15,0,m
311.484828,85,1,9.1,7.2,8.3,8.530885,29,14,s
4395.704471,86,3,9.2,6.88237,8.4,10,25,0,s
6467.094688,85,3,7.7,6,7.2,9,2,0,s
1820.85165,60,1,9.1,7,8.8,8.530885,30,8,m
13124.43874,80,1,8.1,6.6,7.6,9,13,6,s
6011.140838,85,1,7.9,5.8,7.9,8.530885,33,72,s
4208.487381,85,1,8,6.4,7.7,6,19,6,s
107.266326,85,1,9.1,7.2,8.3,8.530885,29,6,l
120.4736,85,1,9.1,7.2,8.3,8.530885,29,7,l
187.929681,85,1,8.2,6.88237,8.009683,6,7,14,l
2442.788517,88,1,7.6,6.88237,8.009683,8,33,0,s
101.102654,85,1,7.5,6.88237,8.009683,8.530885,33,19,s
46.151636,60,1,7.8,6.5,7.3,8.530885,20,20,l
995.973548,60,1,8.2,7.2,8.009683,8.530885,25,23.263212,s
429.388852,85,1,9.1,7.2,8.3,8.530885,29,14,m
93.9584,85,1,9.1,7.2,8.3,8.530885,29,6,s
79.960819,85,1,8.1,6.88237,8.3,9,45,0,s
342.032154,74,1,7.5,6.88237,8.009683,8,19,20,s
153.735556,85,1,9.1,7.2,8.3,8.530885,29,27,l
438.652741,85,1,9.1,7.2,8.3,8.530885,29,6,m
422.692386,73,1,7.8,6.88237,7.3,7,22,0,s
129.221305,85,1,9.1,7.2,8.3,8.530885,29,9,l
220.552134,60,1,7.7,6.1,7.2,8.530885,20,9,m
6158.947407,60,1,9.1,7,8.8,8.530885,30,4,s
545.869271,85,1,9.1,7.2,8.3,8.530885,29,7,m
151.675897,85,1,9.1,7.2,8.3,8.530885,29,8,m
7559.007674,88,1,8.4,6.7,8.2,8,33,33,s
246.389944,85,1,9.1,7.2,8.3,8.530885,29,7,l
4585.544114,80,3,9.2,6.88237,8.4,10,25,0,s
206.425669,81,1,8.1,7.1,8.1,8.530885,18,33,m
261.631105,85,1,8.4,6.88237,8.5,8.530885,15,0,m
102.062936,85,1,9.1,7.2,8.3,8.530885,29,7,m
107.12543,85,1,9.1,7.2,8.3,8.530885,29,4,m
4499.95835,80,3,9.2,6.88237,8.4,10,25,137,m
182.502183,89,1,8.3,6.88237,8.009683,9,22,14,m
17120.36224,85,1,9.5,6.88237,8.5,12,33,0,m
269.753242,60,1,9.1,7,8.8,8.530885,30,12,s
1031.157883,85,1,7.5,6.88237,7.5,9,10,0,m
7387.522545,81,1,8.8,7.2,8.5,9,22,22,m
130.807029,85,1,9.1,7.2,8.3,8.530885,29,6,l
13004.72607,81,1,8,6.7,7.9,8,39,0,s
5.395104,85,3,7.5,6.9,7.2,9,10,5,m
703.93831,85,3,7.5,6.9,7.2,9,10,19,s
333.746378,85,1,7.2,6.1,7,8.530885,44,6,s
13202.98609,89,1,9.1,7.2,8.3,8.530885,29,4,m
135.737855,85,1,9.1,7.2,8.3,8.530885,29,11,l
341.449485,85,1,7.2,6.2,6.8,8.530885,37,10,s
141.224157,88,1,7.6,5.4,7.7,8.530885,30,11,l
9408.197313,81,1,9.1,7.2,8.3,8.530885,29,8,m
465.780156,85,1,8.1,6.88237,8.3,9,45,65,s
794.420847,88,1,6.9,6.88237,8.009683,5,10,23.263212,s
46.648314,50,1,7,6.88237,8.009683,8,21,8,s
311.801841,85,1,7.8,6.8,7.7,8,24,73,s
6364.370339,85,3,7.7,6,7.2,9,2,0,s
139.41627,88,1,7.7,6.4,7.8,8,60,0,s
2542.086673,85,1,7.8,7.1,8,9,59,0,s
14310.06602,80,1,8.1,6.88237,8.009683,8.530885,48,0,s
857.366453,81,1,7.7,6.88237,8.009683,7,10,5,s
125.285334,85,1,9.1,7.2,8.3,8.530885,29,6,l
472.294433,85,1,9.1,7.2,8.3,8.530885,29,5,m
18382.02189,84,1,8.8,7.2,8.5,9,22,0,s
16976.73618,85,1,9.5,6.88237,8.5,12,33,45,s
98.406919,89,1,8.8,7.2,8.5,9,22,14,l
6221.611956,80,1,9.1,7.2,8.3,8.530885,29,13,m
263.113676,60,1,9.1,7,8.8,8.530885,30,6,l
33.901876,82,3,7,5.8,7.1,8.530885,25,8,m
40.740621,83,3,7.5,6.88237,8.009683,9,20,19,m
59.084827,83,3,7.5,6.88237,8.009683,9,20,13,l
133.191451,85,1,9.1,7.2,8.3,8.530885,29,7,m
389.693625,82,1,8,6,8.2,8.530885,17,0,m
3533.950775,80,1,8.2,6.88237,7.8,9,30,0,s
105.459294,85,1,9.1,7.2,8.3,8.530885,29,9,l
2943.254201,85,1,7.6,6.88237,8.009683,7,32,14,s
88.114444,85,1,9.1,7.2,8.3,8.530885,29,5,m
6134.946452,80,1,9.1,7.2,8.3,8.530885,29,9,m
367.645776,85,1,6.7,6.88237,6.7,8.530885,20,0,s
5484.686325,80,1,7.9,5.8,7.9,8.530885,33,0,s
1913.74846,85,1,9,6.88237,8.5,7,22,0,s
161.201295,86,1,8.3,6.5,7.8,8.530885,10,0,l
136.312389,85,1,9.1,7.2,8.3,8.530885,29,10,l
96.119082,60,1,7.8,6.5,7.3,8.530885,20,10,l
274.984559,85,1,8.4,6.88237,8.5,8.530885,15,0,l
80.32405,85,1,6.9,6.4,6.7,10,44,19,s
17337.09268,85,1,9.5,6.88237,8.5,12,33,57,s
8801.512236,81,1,9.5,6.88237,8.5,12,33,4,m
224.294073,85,1,8.3,6.88237,8.1,8.530885,15,8,s
51.555756,82,1,7.6,6.5,7.8,8.530885,13,0,s
678.328223,40,1,7.8,6.88237,7.8,12,20,23,s
221.023865,86,1,8.3,6.88237,8.009683,10,40,27,m
4112.107829,81,3,7.7,6,7.2,9,2,0,s
7764.407107,88,1,9.1,7.2,8.3,8.530885,29,0,m
53.162984,83,3,7.5,6.88237,8.009683,9,20,16,m
5925.945169,80,1,8.1,6.8,7.9,8.530885,24,0,s
218.126602,85,1,9.1,7.2,8.3,8.530885,29,11,l
1799.196303,60,1,9.1,7,8.8,8.530885,30,5,m
10002.70164,81,1,9.1,7.2,8.3,8.530885,29,0,s
2745.586297,81,1,8.1,7.1,8.1,8.530885,18,12,s
16849.5532,85,1,9.5,6.88237,8.5,12,33,0,m
578.672001,85,1,7.7,6.6,7.6,8,17,0,s
179.272468,85,1,7.5,6.88237,7.5,9,10,6,m
431.086095,86,1,9,6.88237,8.5,7,22,0,s
27.011183,40,1,7.2,6.88237,7.2,10,26.742663,0,m
1677.986354,87,1,7.9,6.88237,8.009683,4,14,0,s
1054.11588,85,1,7.7,6.5,7.7,8,48,7,s
123.681054,85,1,7.2,6,7.2,8.530885,44,0,s
2725.499726,85,1,8.1,6.88237,8,8.530885,30,647,m
46.059236,82,1,8.1,6.8,7.9,8.530885,24,9,m
283.491379,85,1,8.3,6.9,8.1,8.530885,27,0,s
15707.49694,85,1,8.4,6.7,8.2,8,33,0,s
10023.05689,81,1,8.3,6.88237,8.009683,9,22,0,s
2003.94858,60,1,8.6,7.4,8.5,8.530885,20,0,s
93.210238,85,3,7.5,6.9,7.2,9,10,5,s
10957.21689,81,1,8.30368,6.88237,8.009683,8.530885,26.742663,0,s
754.360186,74,1,7.3,6.88237,8.009683,10,33,10,m
133.598508,60,1,7.8,6.5,7.3,8.530885,20,16,m
1000.457029,88,1,7.7,6.5,7.5,8.530885,14,0,s
44.0153,60,1,7.8,6.5,7.3,8.530885,20,8,l
3090.246786,88,3,9.2,6.88237,8.4,10,25,11,m
119.2189,85,1,9.1,7.2,8.3,8.530885,29,11,l
3543.975771,88,3,8.6,6.88237,7.3,6,15,9,s
6020.216371,85,1,7.9,6.4,7.4,8,24,0,s
58.434331,85,1,7.6,6.88237,7.3,8.530885,74,108,s
194.580089,85,1,7.8,6.8,7.7,8,24,57,s
92.087228,85,1,8.3,6.9,8.1,8.530885,27,6,m
8659.535895,88,1,9.1,7.2,8.3,8.530885,29,12,s
412.616133,85,1,9.1,7.2,8.3,8.530885,29,7,s
7286.879273,73,1,8.6,8,8.6,11,33,879,s
100.353259,85,1,9.1,7.2,8.3,8.530885,29,6,m
211.238221,82,1,7.5,6.88237,8.009683,8.530885,10,21,m
265.124,85,1,8.4,6.88237,8.5,8.530885,15,0,l
101.837998,85,1,7.5,6.88237,8.009683,5,40,0,s
110.754835,86,1,6.8,6.9,6.8,8.530885,15,0,s
10859.55877,80,1,9.5,6.88237,8.5,12,33,5,m
147.642302,88,1,7.6,5.4,7.7,8.530885,30,3,m
5898.659745,88,1,7.5,6.88237,8.009683,6,57,0,s
10788.43226,80,1,9.5,6.88237,8.5,12,33,16,m
261.724664,85,1,9.1,7.2,8.3,8.530885,29,5,m
203.740569,81,1,8.1,7.1,8.1,8.530885,18,17,m
5038.642584,60,1,9.1,7,8.8,8.530885,30,12,l
264.461644,89,1,8.8,7.2,8.5,9,22,13,l
181.550462,89,1,8.3,6.88237,8.009683,9,22,12,m
73.965612,88,1,7.8,6.88237,7.8,10,15,0,s
1810.492154,60,1,9.1,7,8.8,8.530885,30,8,l
96.774035,85,1,9.1,7.2,8.3,8.530885,29,10,m
5246.180552,80,1,8.2,6.88237,8.009683,6,7,3,s
1020.841418,60,1,9.1,7,8.8,8.530885,30,4,m
181.380015,81,1,8.1,7.1,8.1,8.530885,18,17,m
15480.79702,86,1,8,6.7,7.8,8,40,12,s
258.898377,85,1,9.1,7.2,8.3,8.530885,29,5,l
5064.017208,80,3,6.4,6.88237,6.8,8.530885,33,47,s
6.003698,85,3,7.5,6.9,7.2,9,10,0,m
2725.499726,85,1,8.2,6.88237,8.009683,6,7,647,m
11169.03073,80,1,9.5,6.88237,8.5,12,33,13,s
2251.94656,88,3,9.2,6.88237,8.4,10,25,5,m
18111.63022,84,1,8.8,7.2,8.5,9,22,0,s
182.281266,89,1,8.3,6.88237,8.009683,9,22,10,m
3632.316785,80,3,8.6,6.88237,7.3,6,15,56,m
16985.50501,85,1,9.5,6.88237,8.5,12,33,0,m
90.923128,85,1,9.1,7.2,8.3,8.530885,29,7,s
3694.6907,80,1,8.6,6.88237,9.1,8.530885,33,39,m
961.549791,86,1,7.5,6.88237,8.009683,5,40,0,s
195.334838,81,1,8.1,7.1,8.1,8.530885,18,30,m
160.328585,82,1,8.1,6.8,7.9,8.530885,24,36,m
6221.664797,80,1,9.1,7.2,8.3,8.530885,29,14,m
1803.484696,81,1,7.2,7.2,7.2,4,65,3,s
10847.26038,80,1,9.5,6.88237,8.5,12,33,0,m
11022.22841,80,1,9.5,6.88237,8.5,12,33,0,m
1778.530605,60,1,9.1,7,8.8,8.530885,30,2,m
15.335915,84,1,7.1,6.1,7.1,8.530885,32,8,m
13451.18433,89,1,8,6.4,7.7,6,19,0,s
12852.66844,81,1,8.3,6.88237,8.3,11,40,0,s
2679.521118,88,1,7.6,5.4,7.7,8.530885,30,0,s
97.250688,85,1,9.1,7.2,8.3,8.530885,29,10,s
3901.992144,80,1,8.6,6.88237,9.1,8.530885,33,0,m
146.489087,89,1,8.3,6.88237,8.3,11,40,12,l
3663.14262,85,1,7.6,6.4,7.6,6,50,4,s
29.920148,50,3,7,6.88237,7.2,11,40,0,l
1501.861078,85,1,8.8,7,8,8,35,0,s
12412.6545,87,1,9.5,6.88237,8.5,12,33,14,s
6507.982201,85,3,9.2,6.88237,8.4,10,25,0,s
18.62713,85,3,6.9,6.88237,6.9,8.530885,26.742663,10,l
9264.563399,87,1,7.9,6.4,7.4,8,24,5,s
10125.32959,88,1,8.1,6.8,7.9,8.530885,24,5,s
134.465056,85,1,9.1,7.2,8.3,8.530885,29,12,l
4772.153441,85,3,9.2,6.88237,8.4,10,25,0,s
5925.957674,60,1,9.1,7,8.8,8.530885,30,2,m
12727.72919,87,1,8.8,7.2,8.5,9,22,0,s
44.973461,83,3,7.5,6.88237,8.009683,9,20,13,s
1092.223325,85,3,6.8,6.3,6.9,8.530885,20,6,s
65.830178,50,3,7,6.88237,7.2,11,40,4,l
2579.006171,60,1,9.1,7,8.8,8.530885,30,0,m
119.34303,85,1,7.7,6.6,7.6,8,17,10,m
338.658569,85,1,9.1,7.2,8.3,8.530885,29,55,s
3507.51597,80,3,8.6,6.88237,7.3,6,15,11,l
1737.915663,60,1,9.1,7,8.8,8.530885,30,13,m
3676.578009,80,3,8.6,6.88237,7.3,6,15,6,m
68.741921,89,1,7.5,6.88237,7.5,8,30,12,m
257.854482,85,1,9.1,7.2,8.3,8.530885,29,6,m
197.940169,85,1,9.1,7.2,8.3,8.530885,29,4,l
33.503467,87,3,8.2,6.88237,8.6,11,60,17,l
70.265362,89,1,8.8,7.2,8.5,9,22,16,m
9361.01898,88,1,8.2,6.88237,8.009683,8,25,12,s
493.505679,85,1,7.6,6.88237,8.009683,8.530885,60,0,s
591.357517,87,1,8.2,6.88237,8.009683,8,32,88,s
169.838283,85,1,7.5,6.88237,7.5,9,10,6,m
127.218183,85,1,9.1,7.2,8.3,8.530885,29,9,l
149.917688,50,3,7,6.88237,7.2,11,40,0,l
127.210873,89,1,8.3,6.88237,8.009683,9,22,13,m
99.085178,89,1,8.8,7.2,8.5,9,22,19,l
11385.38253,82,1,8.2,6.88237,8.009683,9,47,0,s
12908.02043,87,1,9.5,6.88237,8.5,12,33,0,s
1717.206003,86,1,8.8,7,8,8,35,7,s
4076.6466,85,3,8.2,6.5,8.1,9,33,0,s
16980.08662,85,1,9.5,6.88237,8.5,12,33,0,l
92.852162,85,1,9.1,7.2,8.3,8.530885,29,9,s
59.830921,60,1,7.8,6.5,7.3,8.530885,20,7,m
6979.782312,88,1,9.1,7.2,8.3,8.530885,29,23.263212,s
399.237055,85,1,8.4,6.88237,8.5,8.530885,15,43,m
7634.612293,81,1,9.5,6.88237,8.5,12,33,71,s
80.519115,82,1,7,6.88237,8.009683,8,11,14,s
10156.9146,73,1,9.1,7,8.8,8.530885,30,0,s
88.718376,85,1,9.1,7.2,8.3,8.530885,29,8,m
4084.276056,80,1,7.8,6.1,7.8,10,33,6,s
96.297354,86,1,8.3,7.3,8.1,9,14,0,m
196.132412,60,1,7.9,6.8,7.8,8.530885,10,0,s
263.113676,60,1,9.1,7,8.8,8.530885,30,6,l
272.153475,73,1,8.5,6.88237,8.009683,11,26.742663,18,m
4450.66762,60,1,9.1,7,8.8,8.530885,30,6,m
10693.87532,80,1,9.5,6.88237,8.5,12,33,12,m
1633.009073,88,1,7.9,6.88237,8.009683,4,14,23.263212,s
1629.615353,89,1,8,6.7,7.8,8,40,8,s
3563.661452,80,3,8.6,6.88237,7.3,6,15,0,m
851.875651,85,1,9.1,7.2,8.3,8.530885,29,6,m
15061.79744,85,1,8.1,6.6,7.6,9,13,0,s
225.399415,85,1,8.1,6.88237,8,8.530885,30,162,m
65.213975,83,3,7.5,6.88237,8.009683,9,20,22,l
92.646963,89,1,8.2,6.88237,8.009683,8,25,7,m
24.00693,50,1,7,6.88237,8.009683,8,21,4,m
10548.73258,73,1,9.1,7,8.8,8.530885,30,79,s
128.815588,85,1,9.1,7.2,8.3,8.530885,29,9,m
992.503864,60,1,9.1,7,8.8,8.530885,30,6,l
1158.75653,85,1,7.1,6.4,6.9,8.530885,28,100,s
357.98765,85,1,5.6,6.88237,8.009683,8.530885,11,0,s
9767.7822,81,1,8.4,6.7,8.2,8,33,36,s
127.115771,85,1,9.1,7.2,8.3,8.530885,29,7,l
402.8328,85,1,9.1,7.2,8.3,8.530885,29,5,m
183.872032,89,1,8.3,6.88237,8.009683,9,22,11,s
139.613046,85,1,7.5,6.88237,7.5,9,10,17,s
221.933235,60,1,7.7,6.1,7.2,8.530885,20,11,m
192.983241,85,1,9.1,7.2,8.3,8.530885,29,8,m
56.688907,85,1,8.1,6.88237,8.3,9,45,19,m
2522.163073,60,1,9.1,7,8.8,8.530885,30,8,m
109.302813,85,1,7.4,6.88237,7.4,8.530885,26.742663,20,l
17806.44613,84,1,8.8,7.2,8.5,9,22,15,s
530.702817,60,1,9.1,7,8.8,8.530885,30,11,m
53.799261,84,1,6.6,6.2,6.6,7,26,14,s
4494.249731,80,3,9.2,6.88237,8.4,10,25,0,m
2522.099989,60,1,9.1,7,8.8,8.530885,30,6,m
62.028457,60,1,7.8,6.5,7.3,8.530885,20,6,m
96.032995,85,1,9.1,7.2,8.3,8.530885,29,12,m
99.18171,85,1,9.1,7.2,8.3,8.530885,29,8,s
8855.199635,88,1,8,6.6,7.3,7,46,0,s
1652.287544,60,1,9.1,7,8.8,8.530885,30,0,m
1486.96384,85,1,7,5.8,7,8.530885,15,0,s
219.246328,89,1,8.3,6.88237,8.009683,9,22,22,m
120.314216,85,1,9.1,7.2,8.3,8.530885,29,6,m
130.201088,85,1,9.1,7.2,8.3,8.530885,29,8,s
41.070137,50,1,6.2,6.88237,8.009683,8.530885,10,3,s
17.227397,85,3,7.5,6.9,7.2,9,10,4,l
73.221006,85,1,7.5,6.88237,8.009683,5,40,0,m
6226.16872,80,1,9.1,7.2,8.3,8.530885,29,4,m
1596.254293,81,1,7.5,6.88237,8.009683,8.530885,10,2,s
3972.518722,88,1,7.9,6.6,7.6,6,33,0,s
121.21484,85,1,9.1,7.2,8.3,8.530885,29,7,m
111.967051,83,1,7,6.88237,7,8.530885,26.742663,8,l
743.996022,85,1,9.1,7.2,8.3,8.530885,29,8,s
190.348969,85,1,7.8,6.4,7.5,9,27,4,s
26.828055,84,1,7,6.4,7.3,8.530885,10,0,s
5978.634375,80,1,9.1,7.2,8.3,8.530885,29,0,m
4555.015288,60,1,9.1,7,8.8,8.530885,30,15,m
57.909728,82,1,7.6,6.5,7.8,8.530885,13,0,s
1042.996825,84,1,7.7,6.6,7.6,8,17,27,s
226.889534,89,1,8.1,6.4,7.7,9,23,78,s
7343.343681,88,1,9.1,7.2,8.3,8.530885,29,14,s
181.623168,89,1,8.3,6.88237,8.009683,9,22,20,m
276.561342,85,1,6.9,6.7,6.9,8.530885,10,0,s
778.768475,89,1,7.8,6.88237,7.8,8,47,8,s
8324.651539,82,1,9,6.88237,8.5,7,22,0,s
16602.6938,89,1,9.1,7,8.8,8.530885,30,20,s
65.620834,85,3,7.5,6.9,7.2,9,10,11,m
98.666668,85,1,8.3,6.9,8.1,8.530885,27,6,m
5585.64314,60,1,9.1,7,8.8,8.530885,30,0,s
6060.18144,80,1,8.4,6.88237,8.5,8.530885,15,0,m
4529.510318,60,1,9.1,7,8.8,8.530885,30,14,m
7437.138873,88,1,8.3,6.9,8.1,8.530885,27,9,s
2116.733281,60,1,9.1,7,8.8,8.530885,30,6,l
166.760555,86,1,7.3,6.88237,7.3,8.530885,40,0,s
271.997102,85,1,7.2,6.88237,7.1,8.530885,25,26,s
134.522768,85,1,9.1,7.2,8.3,8.530885,29,6,l
92.646642,89,1,8.2,6.88237,8.009683,8,25,16,m
2673.905766,85,1,7.6,6.4,7.6,6,50,0,s
4956.690124,80,1,9,6.88237,8.5,7,22,0,m
411.43749,85,1,9.1,7.2,8.3,8.530885,29,4,m
302.531403,81,1,8.1,7.1,8.1,8.530885,18,12,l
63.199072,85,1,7,6.88237,7,8.530885,26.742663,15,s
3890.728176,80,1,7.6,6.88237,8.009683,8,33,11,s
9516.778043,88,1,8.1,6.88237,8.009683,9,19,4,s
4600.279564,80,3,9.2,6.88237,8.4,10,25,31,s
2056.196265,85,1,7.5,6.4,7.5,6,33,0,s
315.991222,85,1,7.7,6.88237,7.7,8.530885,26.742663,0,s
47.639511,89,1,8.8,7.2,8.5,9,22,36,l
40.665606,89,1,8.3,6.88237,8.009683,9,22,14,m
41.706174,83,3,7.5,6.88237,8.009683,9,20,17,s
2063.102861,88,1,6,6.88237,6,5,29,12,s
28.08069,83,1,7.9,6.3,7.6,6,24,12,m
2496.377622,60,1,9.1,7,8.8,8.530885,30,7,m
1076.993602,85,1,7.7,6.6,7.6,8,17,63,s
854.610898,85,1,9.1,7.2,8.3,8.530885,29,25,m
94.841129,85,1,9.1,7.2,8.3,8.530885,29,11,l
131.365062,85,1,9.1,7.2,8.3,8.530885,29,8,m
16879.01151,85,1,8.3,6.88237,8.009683,9,22,10,s
2071.904981,85,1,9,6.88237,8.5,7,22,0,m
118.403161,85,1,9.1,7.2,8.3,8.530885,29,7,m
138.775104,60,1,7.3,6.88237,8.009683,9,18,0,s
229.66995,81,1,8.1,7.1,8.1,8.530885,18,8,m
17388.50079,85,1,8,6.7,7.8,8,40,0,s
30.392855,50,1,7,6.88237,8.009683,8,21,10,s
50.777209,85,3,7.5,6.9,7.2,9,10,7,l
273.639696,85,1,8.4,6.88237,8.5,8.530885,15,0,l
2049.922424,85,1,9,6.88237,8.5,7,22,0,m
901.288521,85,1,7.1,6.3,7.1,8,50,0,s
254.544437,60,1,7.8,5.7,7.2,8.530885,18,95,m
3129.234025,81,1,7.7,6.9,7.7,3,20,0,s
665.443487,60,1,9.1,7,8.8,8.530885,30,10,l
88.113626,85,1,8.1,6.88237,8,8.530885,30,8,l
318.389363,85,1,9.1,7.2,8.3,8.530885,29,10,l
7619.221846,81,1,9.5,6.88237,8.5,12,33,68,m
94.104765,85,1,7.1,6.88237,8.009683,8.530885,60,0,s
5422.522232,60,1,9.1,7,8.8,8.530885,30,0,s
182.101571,89,1,8.3,6.88237,8.009683,9,22,15,m
181.372093,89,1,8.3,6.88237,8.009683,9,22,15,s
13134.6928,89,1,9.1,7.2,8.3,8.530885,29,10,m
6116.529492,60,1,9.1,7,8.8,8.530885,30,0,m
267.981215,85,1,9.1,7.2,8.3,8.530885,29,7,m
3601.89727,80,3,8.6,6.88237,7.3,6,15,156,l
4998.154543,80,1,7.8,6.88237,8.009683,8.530885,25,0,s
16724.69421,85,1,8,6.6,7.3,7,46,0,s
35.904069,89,1,8.8,7.2,8.5,9,22,10,l
202.988697,85,1,7.5,6.88237,7.5,7,30,0,s
150.544836,85,1,8.2,6.88237,8.009683,6,7,0,l
254.923487,85,1,9.1,7.2,8.3,8.530885,29,6,l
192.756341,85,1,9.1,7.2,8.3,8.530885,29,13,l
10802.15852,81,1,9.5,6.88237,8.5,12,33,0,m
4032.046481,88,3,7.7,6,7.2,9,2,0,s
253.65456,60,1,8.6,7.2,8.4,8.530885,30,18,s
13040.81318,80,1,9.5,6.88237,8.5,12,33,0,s
484.320498,85,1,9.1,7.2,8.3,8.530885,29,3,s
387.549973,89,1,8.2,6.88237,8.009683,8,25,0,s
5423.427788,80,1,8.5,7.7,8.1,9,13,14,s
274.663846,85,1,9.1,7.2,8.3,8.530885,29,9,l
2725.499726,85,1,9.1,7.2,8.3,8.530885,29,647,m
2108.160885,60,1,9.1,7,8.8,8.530885,30,2,m
93.038006,85,3,7.5,6.9,7.2,9,10,0,m
263.805184,60,1,9.1,7,8.8,8.530885,30,6,l
126.854904,85,1,9.1,7.2,8.3,8.530885,29,7,m
492.220036,85,1,9.1,7.2,8.3,8.530885,29,15,m
153.37455,85,1,9.1,7.2,8.3,8.530885,29,0,l
9621.070795,88,1,8.1,6.88237,8.009683,9,19,0,s
129.120089,50,3,7.7,6.88237,7.8,9,20,8,m
6191.047878,80,1,8.3,6.9,8.1,8.530885,27,11,s
2025.502515,60,1,9.1,7,8.8,8.530885,30,9,m
885.413126,87,1,9,6.88237,8.5,7,22,0,m
3426.860126,85,1,7.4,6.3,7.4,6,73,7,s
26.585404,50,1,7,6.88237,8.009683,8,21,6,s
27.639274,50,1,7,6.88237,8.009683,8,21,6,s
498.283267,85,1,7.1,6.3,7.1,8,50,0,s
4286.962573,84,1,8.8,7,8,8,35,0,s
197.957603,85,1,9.1,7.2,8.3,8.530885,29,5,m
277.341076,85,1,8.4,6.88237,8.5,8.530885,15,0,m
5224.09854,60,1,7.8,6.5,7.3,8.530885,20,5,s
79.081401,85,1,7.9,6.88237,7.9,8.530885,35,17,s
243.940376,85,1,9.1,7.2,8.3,8.530885,29,9,l
261.113842,60,1,9.1,7,8.8,8.530885,30,7,l
3594.959856,80,3,8.6,6.88237,7.3,6,15,15,s
1339.954702,85,1,9.1,7.2,8.3,8.530885,29,124,s
3.697208,88,1,7.7,6.5,7.5,8.530885,14,11,l
17290.78964,85,1,9.5,6.88237,8.5,12,33,0,s
81.575514,85,1,8.1,6.88237,8,8.530885,30,4,m
6029.629943,85,1,7.7,6.4,7.9,8.530885,33,46,s
1181.414249,81,1,6.6,6.2,6.6,8.530885,20,17,s
123.828488,85,1,9.1,7.2,8.3,8.530885,29,7,l
10861.74355,80,1,9.5,6.88237,8.5,12,33,0,m
4052.37412,60,1,8.6,7.4,8.5,8.530885,20,0,s
5103.097416,80,1,7.5,6.88237,8.009683,6,57,0,s
63.608747,85,3,7.5,6.9,7.2,9,10,3,m
93.650103,85,1,9.1,7.2,8.3,8.530885,29,7,s
1798.393028,85,1,8.8,7,8,8,35,7,s
472.692754,85,1,9.1,7.2,8.3,8.530885,29,5,m
15949.0199,85,1,8.2,6.88237,8.009683,8,25,24,s
108.991391,85,1,7.2,6.2,6.8,8.530885,37,0,s
9466.980703,81,1,9.1,7,8.8,8.530885,30,0,s
115.748772,85,1,9.1,7.2,8.3,8.530885,29,15,l
3669.005222,80,3,8.6,6.88237,7.3,6,15,8,m
409.726354,87,1,7.9,6.7,7.6,6,10,0,s
55.853038,85,1,8.3,6.9,8.1,8.530885,27,0,m
13170.34924,89,1,9.1,7.2,8.3,8.530885,29,0,s
933.336947,85,1,8.3,6.88237,8.009683,10,40,17,s
9763.692228,89,1,8.1,6.88237,8.009683,9,19,0,s
58.448075,88,1,7.3,6.88237,7.3,8.530885,26.742663,44,m
211.065935,85,1,7.7,6.88237,7.7,8.530885,26.742663,40,s
264.817402,60,1,9.1,7,8.8,8.530885,30,0,l
278.253546,60,1,7.7,6.1,7.2,8.530885,20,9,m
1630.20071,60,1,9.1,7,8.8,8.530885,30,0,l
4742.904352,85,3,9.2,6.88237,8.4,10,25,0,s
422.32486,85,1,9.1,7.2,8.3,8.530885,29,6,m
201.311862,81,1,8.1,7.1,8.1,8.530885,18,28,l
120.819055,87,1,7.2,6.88237,8.009683,6,32,0,s
179.5241,81,1,8.1,7.1,8.1,8.530885,18,11,m
198.230264,85,1,9.1,7.2,8.3,8.530885,29,4,m
273.327434,89,1,8.3,6.88237,8.009683,9,22,14,m
106.50624,85,1,9.1,7.2,8.3,8.530885,29,3,l
222.01894,60,1,7.7,6.1,7.2,8.530885,20,10,m
160.720224,89,1,8.8,7.2,8.5,9,22,24,l
4417.940662,85,3,7,5.8,7.1,8.530885,25,0,s
270.293965,85,1,9.1,7.2,8.3,8.530885,29,7,l
3513.755304,80,3,8.6,6.88237,7.3,6,15,0,m
11567.68436,88,1,9.5,6.88237,8.5,12,33,182,m
116.461463,85,1,9.1,7.2,8.3,8.530885,29,10,l
366.758053,85,1,6.9,6.7,6.9,8.530885,10,8,s
28.613951,82,3,7,5.8,7.1,8.530885,25,16,m
88.147599,85,1,6.9,6.88237,6.9,8.530885,30,38,s
39.296891,60,1,7.8,6.5,7.3,8.530885,20,6,l
102.639472,85,1,9.1,7.2,8.3,8.530885,29,13,l
136.815575,85,1,9.1,7.2,8.3,8.530885,29,13,l
79.976938,85,3,7.5,6.9,7.2,9,10,0,s
132.59249,85,1,9.1,7.2,8.3,8.530885,29,9,l
169.864499,50,3,7.7,6.88237,7.8,9,20,3,s
32.579803,83,1,7,6.88237,7.4,8,15,14,s
59.577344,85,1,8.3,6.9,8.1,8.530885,27,0,m
9241.276687,89,1,8.1,6.88237,8.009683,9,19,0,s
3788.511893,80,3,8.6,6.88237,7.3,6,15,79,l
4983.267987,88,1,9,6.88237,8.5,7,22,12,s
181.369634,89,1,8.3,6.88237,8.009683,9,22,14,s
72.816911,50,1,6.2,6.88237,8.009683,8.530885,10,0,s
133.725008,60,1,7.8,6.5,7.3,8.530885,20,13,s
35.429371,60,1,7.8,6.5,7.3,8.530885,20,10,l
201.569809,81,1,8.1,7.1,8.1,8.530885,18,23,l
13818.99391,88,1,9.1,7,8.8,8.530885,30,0,s
667.884332,81,1,8.1,7.1,8.1,8.530885,18,4,m
732.11759,89,1,8.3,6.88237,8.3,11,40,19,m
276.912285,85,1,8.4,6.88237,8.5,8.530885,15,0,m
4.066242,84,1,7.1,6.1,7.1,8.530885,32,34,m
3564.964652,80,1,8.6,6.88237,9.1,8.530885,33,16,m
102.267085,85,1,8.2,6.88237,8.2,8.530885,26.742663,15,m
114.103161,85,1,9.1,7.2,8.3,8.530885,29,15,l
4959.275522,80,1,9,6.88237,8.5,7,22,0,m
1764.46917,60,1,9.1,7,8.8,8.530885,30,0,m
6032.686466,60,1,9.1,7,8.8,8.530885,30,16,m
864.437935,85,1,8.5,7.7,8.1,9,13,0,s
69.289191,85,1,8.1,6.88237,8.3,9,45,116,s
4757.931378,60,1,9.1,7,8.8,8.530885,30,10,m
266.541582,85,1,8,6.88237,8,5,26.742663,0,m
118.963162,85,1,7.7,6.5,7.7,8,48,6,s
213.256288,85,1,9.1,7.2,8.3,8.530885,29,10,l
261.763089,85,1,8.1,6.88237,8.3,9,45,41,s
87.153503,87,3,9.2,6.88237,8.4,10,25,17,m
791.952774,60,1,9.1,7,8.8,8.530885,30,12,m
85.650381,85,1,7.7,6.6,7.6,8,17,113,l
9545.228384,81,1,9.1,7.2,8.3,8.530885,29,44,m
33.901876,82,3,7,5.8,7.1,8.530885,25,8,m
183.849332,89,1,8.3,6.88237,8.009683,9,22,0,s
258.584993,60,1,9.1,7,8.8,8.530885,30,39,l
133.281632,85,1,9.1,7.2,8.3,8.530885,29,6,l
259.061713,89,1,7.2,6.2,6.7,8.530885,37,0,s
114.640995,85,1,8.1,6.88237,8,8.530885,30,0,m
92.915594,85,1,9.1,7.2,8.3,8.530885,29,8,m
131.345201,85,1,9.1,7.2,8.3,8.530885,29,7,m
99.023898,88,1,5.5,6.88237,8.009683,5,34,44,s
245.071297,60,1,7.8,5.7,7.2,8.530885,18,0,l
330.655492,83,3,7.8,6.5,7.5,11,28,118,l
44.569642,81,1,7.8,6.88237,8.009683,9,15,7,l
258.179874,85,1,9.1,7.2,8.3,8.530885,29,5,m
7331.681463,81,1,8.7,7.7,7.8,6,30,0,s
169.276284,81,1,8.1,7.1,8.1,8.530885,18,6,l
15760.92798,86,1,9.5,6.88237,8.5,12,33,14,l
138.064074,82,1,7.6,6,7.4,8.530885,36,0,s
135.651555,85,1,9.1,7.2,8.3,8.530885,29,9,l
3820.399923,80,3,8.6,6.88237,7.3,6,15,62,m
15670.19295,89,1,8.8,7,8,8,35,0,s
384.393187,85,1,7.2,6.2,6.8,8.530885,37,0,s
257.748128,85,1,9.1,7.2,8.3,8.530885,29,7,l
431.5028,86,1,7.4,6.9,7.5,8.530885,36,7,s
224.848033,85,1,9.1,7.2,8.3,8.530885,29,7,l
247.350703,85,1,9.1,7.2,8.3,8.530885,29,8,l
7762.533387,84,3,9.2,6.88237,8.4,10,25,0,s
123.824197,85,1,9.1,7.2,8.3,8.530885,29,7,l
8469.111325,88,1,9.1,7.2,8.3,8.530885,29,30,s
3648.161248,80,3,8.6,6.88237,7.3,6,15,0,m
7003.685605,81,1,9.1,7,8.8,8.530885,30,0,s
432.808666,85,1,9.1,7.2,8.3,8.530885,29,3,m
93.987478,85,1,9.1,7.2,8.3,8.530885,29,11,l
63.477302,82,1,7.7,6.4,7.9,8.530885,33,41,m
151.753846,85,1,8.3,6.88237,8.1,8.530885,15,0,s
140.093998,85,1,8.3,6.88237,8.1,8.530885,15,9,m
687.615003,87,3,9.2,6.88237,8.4,10,25,0,l
128.410898,85,1,9.1,7.2,8.3,8.530885,29,6,l
98.365858,85,1,9.1,7.2,8.3,8.530885,29,6,l
1220.545514,85,1,7.7,6.6,7.6,8,17,12,s
5309.789146,80,1,9,6.88237,8.5,7,22,0,m
30.481558,50,1,7,6.88237,8.009683,8,21,7,m
6308.547945,80,1,9.1,7.2,8.3,8.530885,29,0,s
17281.36063,85,1,8.3,6.88237,8.009683,9,22,6,s
18450.59998,84,1,8.8,7.2,8.5,9,22,8,s
409.615746,85,1,7.7,6.5,7.7,8,48,0,s
134.26616,85,1,9.1,7.2,8.3,8.530885,29,9,m
419.312826,85,3,7.5,6.9,7.2,9,10,0,s
4916.665332,88,1,8.6,6.88237,9.1,8.530885,33,0,s
2480.288729,87,3,9.2,6.88237,8.4,10,25,68,l
23.245681,84,1,6.7,6.3,6.6,8,11,3,m
36.7022,85,1,8.1,6.88237,8,8.530885,30,0,m
10830.32273,80,1,9.5,6.88237,8.5,12,33,30,m
179.527393,81,1,8.1,7.1,8.1,8.530885,18,3,m
5983.175612,80,1,9.1,7.2,8.3,8.530885,29,7,s
5540.343172,80,1,8.5,7.7,8.1,9,13,98,s
3589.16263,80,3,8.6,6.88237,7.3,6,15,0,s
16534.27527,85,1,8.4,6.7,8.2,8,33,52,s
59.777319,60,1,7.8,6.5,7.3,8.530885,20,9,m
69.684442,83,3,7.5,6.88237,8.009683,9,20,9,l
52.568327,60,1,7.8,6.5,7.3,8.530885,20,17,l
154.143867,85,1,7,6.88237,7,8.530885,33,62,m
5234.629991,80,1,8.1,7.3,8.2,8.530885,10,0,s
114.866156,85,1,9.1,7.2,8.3,8.530885,29,25,l
6687.408987,88,1,7.9,6.6,7.9,5,33,0,s
119.140684,85,1,9.1,7.2,8.3,8.530885,29,7,l
2725.499726,85,1,7.9,6.88237,7.9,8.530885,35,647,s
196.901998,85,1,9.1,7.2,8.3,8.530885,29,10,l
171.361167,81,1,8.1,7.1,8.1,8.530885,18,2,l
404.216542,85,1,9.1,7.2,8.3,8.530885,29,0,m
10645.09725,80,1,9.5,6.88237,8.5,12,33,0,m
457.897297,85,1,9.1,7.2,8.3,8.530885,29,4,m
100.812326,85,1,9.1,7.2,8.3,8.530885,29,7,s
60.4254,83,3,7.5,6.88237,8.009683,9,20,7,l
659.542322,86,1,9.1,7.2,8.3,8.530885,29,5,m
182.94218,89,1,8.3,6.88237,8.009683,9,22,12,m
141.049019,89,1,8.3,6.88237,8.009683,9,22,19,l
97.803262,85,1,9.1,7.2,8.3,8.530885,29,7,l
153.263404,89,1,8.8,7.2,8.5,9,22,19,l
13134.71223,89,1,9.1,7.2,8.3,8.530885,29,10,m
5455.87892,88,1,8.3,6.5,7.8,8.530885,10,12,s
214.945003,85,1,9.1,7.2,8.3,8.530885,29,23,l
2107.874264,60,1,9.1,7,8.8,8.530885,30,0,m
214.807379,85,1,8,6.88237,8,5,26.742663,0,m
5012.196139,80,1,9,6.88237,8.5,7,22,156,m
108.385876,60,3,7.8,6.5,7.5,11,28,13,m
131.84594,84,1,7.1,6.1,7.1,8.530885,32,8,s
630.750239,85,1,7.5,6.88237,8.009683,5,40,0,s
101.416197,74,1,8.30368,6.88237,8.009683,8,26.742663,19,m
85.505751,85,1,7.1,6.88237,8.009683,9,49,0,s
7.258903,85,5,6.4,6.88237,6.4,8.530885,26.742663,42,l
64.73509,85,1,8.1,6.88237,8,8.530885,30,0,l
373.228736,82,1,6.5,6.88237,6.5,8.530885,33,61,l
10746.179,80,1,9.5,6.88237,8.5,12,33,0,m
167.332063,88,1,7.7,6.5,7.5,8.530885,14,20,s
17280.17463,85,1,9.5,6.88237,8.5,12,33,0,s
134.455138,85,1,9.1,7.2,8.3,8.530885,29,10,l
4187.320972,88,1,7.9,6.88237,8.009683,10,26.742663,9,s
153.973694,85,1,8.3,6.9,8.1,8.530885,27,0,m
5196.620527,60,1,9.1,7,8.8,8.530885,30,6,s
153.684723,89,1,8.8,7.2,8.5,9,22,0,l
130.700307,85,1,9.1,7.2,8.3,8.530885,29,5,l
3167.86206,89,1,8,6.7,7.9,8,39,10,s
134.74078,89,1,8.3,6.88237,8.009683,9,22,11,s
2746.547889,88,1,8.2,6.88237,8.009683,8,32,12,s
4594.025825,80,1,7.7,6.5,7.5,8.530885,14,0,s
16745.6112,85,1,9.5,6.88237,8.5,12,33,0,m
284.784037,85,1,5.6,6.88237,8.009683,8.530885,11,25,s
7908.220079,88,1,8.2,6.88237,8.009683,8,25,0,s
36.314152,74,3,7,6.8,7.3,8.530885,13,10,s
328.454319,50,1,6.8,6.5,6.9,10,12,60,m
259.118712,85,1,8.4,6.88237,8.5,8.530885,15,0,m
2978.476568,60,1,9.1,7,8.8,8.530885,30,9,m
132.078477,85,1,9.1,7.2,8.3,8.530885,29,7,l
128.789164,85,1,9.1,7.2,8.3,8.530885,29,8,l
41.980844,81,3,6.4,6.88237,6.8,8.530885,33,12,m
17000.44367,85,1,9.5,6.88237,8.5,12,33,0,m
130.700987,85,1,9.1,7.2,8.3,8.530885,29,6,m
854.604335,85,1,9.1,7.2,8.3,8.530885,29,25,m
133.638024,60,1,7.8,6.5,7.3,8.530885,20,15,s
141.861162,87,3,7.8,6.88237,7.9,11,35,61,l
2133.249737,85,1,9,6.88237,8.5,7,22,0,m
1710.791678,60,1,9.1,7,8.8,8.530885,30,6,l
91.445878,89,1,8.3,6.88237,8.009683,9,22,11,l
105.516785,85,1,9.1,7.2,8.3,8.530885,29,10,l
246.855207,85,1,9.1,7.2,8.3,8.530885,29,8,l
27.761305,50,1,7,6.88237,8.009683,8,21,9,m
6249.640089,80,1,9.1,7.2,8.3,8.530885,29,6,m
153.313305,89,1,8.8,7.2,8.5,9,22,18,l
150.179534,85,1,8.1,6.88237,8,8.530885,30,558,m
608.364768,89,1,8.8,7.2,8.5,9,22,10,l
13302.16014,89,1,9.1,7.2,8.3,8.530885,29,0,m
201.981423,81,1,8.1,7.1,8.1,8.530885,18,0,m
407.249327,85,1,6.9,6.88237,8.009683,8,9,25,s
97.034111,60,3,7.8,6.5,7.5,11,28,0,m
285.050579,85,1,8.4,6.88237,8.5,8.530885,15,35,l
99.839555,85,1,9.1,7.2,8.3,8.530885,29,5,m
126.231217,85,1,9.1,7.2,8.3,8.530885,29,7,m
12892.58377,87,1,9.5,6.88237,8.5,12,33,0,s
127.897031,85,1,8.1,6.88237,8.3,9,45,8,l
1711.093097,60,1,9.1,7,8.8,8.530885,30,11,l
123.921762,85,1,9.1,7.2,8.3,8.530885,29,11,m
34.291182,84,1,6.7,6.3,6.6,8,11,0,m
105.056884,89,1,6.7,6.88237,8.009683,7,20,0,s
258.756418,85,1,7.4,6.4,7.4,6,29,4,s
315.503461,85,1,9.1,7.2,8.3,8.530885,29,8,m
725.154199,85,1,7.7,6.5,7.7,8,48,7,s
57.876646,83,3,7.5,6.88237,8.009683,9,20,18,s
9015.170311,81,1,8.8,7.2,8.5,9,22,7,s
191.127127,50,1,7.1,6.88237,7.1,10,26.742663,9,s
3065.089409,85,1,7.4,6.3,7.4,6,73,95,s
6464.775937,88,1,8.1,6.88237,7.5,9,38,0,s
365.267535,75,3,7.2,6.88237,8.009683,6,10,6,m
5781.820861,80,1,9.1,7.2,8.3,8.530885,29,7,m
106.603386,85,1,9.1,7.2,8.3,8.530885,29,7,l
2057.992813,88,1,8.2,6.88237,8.009683,8,32,0,s
2956.561025,88,1,7.6,6.88237,8.009683,8,33,0,s
45.475203,81,1,7.8,7.1,8,9,59,26,m
242.693176,85,1,8.3,6.88237,8.1,8.530885,15,0,l
19.741081,85,5,6.4,6.88237,6.4,8.530885,26.742663,52,l
7245.022133,81,1,8,6.4,7.7,6,19,0,s
77.662977,85,1,8.3,6.9,8.1,8.530885,27,14,m
88.287461,85,1,9.1,7.2,8.3,8.530885,29,13,l
3657.693694,80,3,8.6,6.88237,7.3,6,15,0,m
1739.514749,60,1,9.1,7,8.8,8.530885,30,0,m
1191.822534,85,1,7.6,6.1,8,8.530885,48,11,s
72.266068,40,3,7.3,6.4,7.7,7,19,-28,m
123.474874,85,1,9.1,7.2,8.3,8.530885,29,7,m
215.961776,85,1,8.4,6.88237,8.4,8.530885,26.742663,11,l
4323.290584,81,1,7.9,6.88237,7.2,8.530885,28,0,s
9408.072044,81,1,9.1,7.2,8.3,8.530885,29,8,s
109.986131,85,1,9.1,7.2,8.3,8.530885,29,8,l
2522.37492,60,1,9.1,7,8.8,8.530885,30,4,m
146.798432,85,1,7.7,6.88237,7.7,8.530885,30,20,s
2356.642893,85,1,7.5,6.5,7.5,4,11,72,s
10796.79766,80,1,8.3,6.88237,8.009683,9,22,0,s
182.071938,85,1,5.7,6.88237,8.009683,8.530885,10,0,s
491.45443,85,1,9.1,7.2,8.3,8.530885,29,0,m
106.70952,85,1,9.1,7.2,8.3,8.530885,29,11,m
511.110817,85,1,7.5,6.88237,8.009683,5,40,18,s
7766.678491,81,3,9.2,6.88237,8.4,10,25,40,m
90.847517,85,1,9.1,7.2,8.3,8.530885,29,0,l
718.818914,85,1,9.1,7.2,8.3,8.530885,29,0,m
989.617132,60,1,9.1,7,8.8,8.530885,30,0,m
4400.085396,80,3,9.2,6.88237,8.4,10,25,0,m
114.50046,85,1,9.1,7.2,8.3,8.530885,29,9,l
6003.448879,88,1,8.8,8.2,8.6,9,20,0,s
21.54605,89,1,8.2,6.88237,8.2,11,26.742663,11,l
3685.212897,80,3,8.6,6.88237,7.3,6,15,34,l
101.321302,85,1,9.1,7.2,8.3,8.530885,29,8,l
17001.63529,85,1,9.5,6.88237,8.5,12,33,0,m
130.887794,85,1,9.1,7.2,8.3,8.530885,29,11,m
7847.03426,88,1,8.1,7.1,8.1,8.530885,18,0,s
2725.499726,60,3,7.8,6.5,7.5,11,28,647,m
5261.878337,80,1,9,6.88237,8.5,7,22,5,s
127.773888,85,1,7.5,6.88237,7.5,7,30,57,s
181.451615,89,1,8.3,6.88237,8.009683,9,22,19,s
64.210434,89,1,8.3,6.88237,8.009683,9,22,19,m
3850.856788,80,1,7.6,6.88237,8.009683,8,33,5,s
2606.851599,85,1,7.3,6.88237,7.3,8.530885,36,0,s
6240.607926,80,1,9.1,7.2,8.3,8.530885,29,10,m
620.190094,85,1,7.8,6.8,7.7,8,24,0,s
121.930375,85,1,9.1,7.2,8.3,8.530885,29,7,m
5663.881521,80,1,8.3,6.88237,7.6,8.530885,26.742663,0,m
6.044721,85,3,7.5,6.9,7.2,9,10,4,s
3992.283514,85,1,8.8,7,8,8,35,87,s
6112.617279,80,1,8.3,6.88237,7.6,8.530885,26.742663,0,l
7862.51723,81,1,9,6.88237,8.5,7,22,62,s
130.421412,85,1,9.1,7.2,8.3,8.530885,29,10,s
289.177159,87,3,9.2,6.88237,8.4,10,25,88,s
1655.129044,85,1,8.2,6.88237,7.8,9,30,95,s
815.768699,74,1,8.1,6.88237,8.1,9,26.742663,51,m
77.450894,74,1,7.7,6.88237,8.4,10,26.742663,15,l
157.498165,85,1,8.3,6.9,8.1,8.530885,27,0,s
136.125454,85,1,8.3,6.9,8.1,8.530885,27,8,m
11.892396,50,1,6.6,6.88237,8.009683,7,7,4,s
248.416469,85,1,8.4,6.88237,8.5,8.530885,15,0,l
10652.6081,80,1,9.5,6.88237,8.5,12,33,32,m
2158.571377,88,3,9.2,6.88237,8.4,10,25,0,m
201.891649,81,1,8.1,7.1,8.1,8.530885,18,12,m
128.164118,85,1,9.1,7.2,8.3,8.530885,29,7,m
10.309386,85,3,7.5,6.9,7.2,9,10,7,m
119.494859,85,1,9.1,7.2,8.3,8.530885,29,6,l
10803.95003,81,1,9.5,6.88237,8.5,12,33,0,s
21.617007,50,1,6,6.88237,8.009683,9,26.742663,11,s
117.756765,85,1,9.1,7.2,8.3,8.530885,29,3,l
182.33572,89,1,8.3,6.88237,8.009683,9,22,7,m
1805.216971,85,1,7.6,6.88237,8.009683,7,32,24,s
16980.2438,85,1,9.5,6.88237,8.5,12,33,0,m
178.626385,82,3,7,5.8,7.1,8.530885,25,13,m
134.536028,85,1,9.1,7.2,8.3,8.530885,29,7,l
3956.085177,80,1,8.6,6.88237,9.1,8.530885,33,0,m
117.367894,89,1,8,6.6,7.3,7,46,7,m
173.764293,85,1,7.4,6.2,7.1,8.530885,10,6,s
182.486811,89,1,8.3,6.88237,8.009683,9,22,0,m
259.909542,60,1,9.1,7,8.8,8.530885,30,13,l
16449.1398,85,1,8.5,6.88237,8.3,11,70,0,s
6113.644853,85,1,7.9,5.8,7.9,8.530885,33,0,s
260.23194,60,1,9.1,7,8.8,8.530885,30,0,l
103.775454,85,1,9.1,7.2,8.3,8.530885,29,6,m
10841.35259,80,1,9.5,6.88237,8.5,12,33,29,m
9550.219427,81,1,9.1,7.2,8.3,8.530885,29,25,m
350.484399,85,1,8.4,6.88237,8.4,8.530885,26.742663,16,l
96.408467,85,1,9.1,7.2,8.3,8.530885,29,9,s
20.986238,84,1,6.6,6.2,6.6,7,26,6,s
3503.711284,80,3,8.6,6.88237,7.3,6,15,7,l
353.420661,85,1,9.1,7.2,8.3,8.530885,29,0,s
167.026575,81,1,8.1,7.1,8.1,8.530885,18,0,l
1820.549799,60,1,9.1,7,8.8,8.530885,30,8,m
558.368367,85,1,7.4,6.3,7.2,10,56,69,s
96.995065,85,1,9.1,7.2,8.3,8.530885,29,7,l
67.33708,60,3,7.8,6.5,7.5,11,28,0,l
4953.684337,88,1,8.6,6.88237,9.1,8.530885,33,0,s
136.942456,85,1,7,6.88237,7,8.530885,26.742663,67,m
231.343577,60,1,9.1,7,8.8,8.530885,30,6,l
2725.499726,85,1,8.1,6.88237,8,8.530885,30,647,m
92.461422,85,3,7.5,6.9,7.2,9,10,11,l
2725.499726,85,1,8.3,6.88237,8.1,8.530885,15,647,m
57.983314,85,1,7.9,6.88237,7.9,8.530885,35,15,l
7378.747389,81,3,8.6,6.88237,7.3,6,15,17,m
7586.205721,81,1,9.5,6.88237,8.5,12,33,0,m
2107.563111,60,1,9.1,7,8.8,8.530885,30,0,m
24.475616,85,1,7.9,6.88237,7.9,8.530885,35,11,m
263.270287,60,1,9.1,7,8.8,8.530885,30,10,l
124.545516,85,1,9.1,7.2,8.3,8.530885,29,8,m
122.716885,50,1,7,6.88237,8.009683,8,21,0,s
459.030787,60,3,7.7,6.88237,8.009683,4,15,5,s
2858.762948,81,1,8.1,6.88237,8.009683,9,19,0,s
15.992947,50,1,7.3,6.88237,7.1,10,60,95,m
1423.228997,85,1,7.5,6.88237,7.5,7,30,41,s
111.73464,85,1,9.1,7.2,8.3,8.530885,29,9,s
479.275763,85,1,7.8,6.8,7.7,8,24,0,s
6688.723895,80,1,7,6.88237,7,8.530885,33,0,s
37.246103,81,1,7.4,6.88237,8.009683,7,55,0,s
1013.664064,86,1,9.1,7.2,8.3,8.530885,29,0,s
433.172301,85,1,9.1,7.2,8.3,8.530885,29,8,m
298.155136,81,1,8.1,7.1,8.1,8.530885,18,16,m
186.617956,60,1,9.1,7,8.8,8.530885,30,14,l
95.317123,85,1,9.1,7.2,8.3,8.530885,29,6,s
92.414417,85,1,9.1,7.2,8.3,8.530885,29,9,m
260.175115,85,1,8.4,6.88237,8.5,8.530885,15,48,s
8156.326159,81,1,8.3,6.5,7.8,8.530885,10,3,s
3956.085177,80,1,8.6,6.88237,9.1,8.530885,33,0,m
652.243263,86,1,7.5,6.88237,8.009683,5,40,188,s
47.4564,89,1,8.8,7.2,8.5,9,22,34,l
5899.89102,60,1,9.1,7,8.8,8.530885,30,0,s
109.692843,86,1,8.3,6.5,7.8,8.530885,10,0,l
323.926591,85,1,9.1,7.2,8.3,8.530885,29,6,m
89.467244,85,1,7.5,6.88237,8.009683,5,40,24,s
137.144043,85,1,8.2,6.88237,8.009683,6,7,13,m
256.500404,85,1,8.4,6.88237,8.5,8.530885,15,28,l
118.371941,85,1,6.9,6.4,6.7,10,44,0,s
10144.03005,88,1,8,6.5,8,8.530885,33,0,s
3590.338252,85,1,8.7,7.7,7.8,6,30,7,s
1724.123828,89,1,8.3,6.88237,8.3,11,40,382,s
1837.856125,87,1,8,6.4,7.7,6,19,0,s
111.826864,85,1,7.1,6.88237,8.009683,8.530885,25,124,s
10965.48445,80,1,9.5,6.88237,8.5,12,33,0,m
100.057808,85,1,9.1,7.2,8.3,8.530885,29,8,m
10599.98075,81,1,8.8,7,8,8,35,0,s
341.943054,85,1,7.2,6,7.2,8.530885,44,0,s
6213.471497,85,1,7.7,6.4,7.9,8.530885,33,69,s
4955.018307,88,1,8.6,6.88237,9.1,8.530885,33,0,s
805.950089,85,1,6.9,6.6,6.9,8.530885,48,0,s
6096.615653,85,3,9.2,6.88237,8.4,10,25,214,s
2063.866282,88,3,9.2,6.88237,8.4,10,25,0,s
2722.622241,84,1,7.8,7.1,8,9,59,0,s
5987.217006,80,1,9.1,7.2,8.3,8.530885,29,1,m
3481.456994,80,3,8.6,6.88237,7.3,6,15,0,l
400.753564,85,1,9.1,7.2,8.3,8.530885,29,4,s
17893.04236,84,1,9.5,6.88237,8.5,12,33,0,s
170.904354,85,1,9.1,7.2,8.3,8.530885,29,8,l
9302.438985,88,1,8.3,6.88237,8.1,8.530885,15,0,s
6198.362383,80,1,8.1,6.88237,8.3,9,45,11,s
55.671321,85,1,6.9,6.88237,6.9,8.530885,33,81,m
86.219559,85,1,8.3,6.88237,8.1,8.530885,15,0,m
506.496489,89,1,8.3,6.88237,8.009683,9,22,0,s
814.169879,85,1,9.1,7.2,8.3,8.530885,29,0,s
4146.979309,81,1,7.9,6.88237,7.2,8.530885,28,0,s
296.777062,85,1,7.2,6.6,7.2,8.530885,26.742663,0,s
7226.599729,88,1,9.1,7.2,8.3,8.530885,29,7,s
182.811271,89,1,8.3,6.88237,8.009683,9,22,24,s
2107.784337,60,1,9.1,7,8.8,8.530885,30,9,m
163.320169,50,1,7,6.88237,8.009683,8,21,0,s
1129.301884,85,1,9.1,7.2,8.3,8.530885,29,29,s
3862.344382,88,1,7,6.88237,7,8.530885,5,12,s
6002.007822,80,1,8.1,6.88237,8.3,9,45,0,s
628.885203,85,1,7.8,6.8,7.7,8,24,0,s
4828.45692,60,1,9.1,7,8.8,8.530885,30,10,s
4621.882958,60,1,9.1,7,8.8,8.530885,30,7,s
319.347649,60,1,7.8,5.7,7.2,8.530885,18,0,m
17095.62356,85,1,9.5,6.88237,8.5,12,33,0,s
122.422283,89,1,7.5,5.8,6.6,4,10,10,m
403.922315,82,1,7.6,6.88237,8.009683,8.530885,23,14,s
182.691736,89,1,8.3,6.88237,8.009683,9,22,20,s
129.762497,85,1,9.1,7.2,8.3,8.530885,29,7,m
160.431219,85,1,8.3,6.88237,8.1,8.530885,15,0,m
219.974444,60,1,7.7,6.1,7.2,8.530885,20,8,l
254.68475,85,1,7.2,6,7.2,8.530885,44,5,s
60.415406,82,1,8.1,6.8,7.9,8.530885,24,14,l
2725.499726,83,3,7.5,6.88237,8.009683,9,20,647,l
8144.875216,81,1,8.3,6.5,7.8,8.530885,10,2,s
199.666706,85,1,9.1,7.2,8.3,8.530885,29,11,l
13074.74742,89,1,7.9,6.4,7.4,8,24,0,s
153.606867,85,1,8.3,6.88237,8.1,8.530885,15,8,m
189.983472,81,1,8.1,7.1,8.1,8.530885,18,30,l
5578.726024,88,1,8.3,6.88237,8.009683,9,22,0,s
93.933948,85,1,9.1,7.2,8.3,8.530885,29,8,l
4734.904341,85,1,7.9,6.88237,7.9,9,47,0,s
183.94447,81,1,8.1,7.1,8.1,8.530885,18,8,m
108.288786,88,1,8,6.6,7.4,8.530885,33,65,l
574.060128,60,1,9.1,7,8.8,8.530885,30,9,l
303.442675,89,1,8.8,7.2,8.5,9,22,0,m
26.024119,85,1,7,6.88237,7,8.530885,34,91,s
267.06616,89,1,8.8,7.2,8.5,9,22,8,l
93.110871,85,1,9.1,7.2,8.3,8.530885,29,10,m
2610.226298,88,3,9.2,6.88237,8.4,10,25,21,m
3584.824273,80,3,8.6,6.88237,7.3,6,15,0,l
137.042862,85,1,8.2,6.88237,8.009683,6,7,58,m
262.550158,89,1,8.8,7.2,8.5,9,22,9,l
10515.76421,81,1,8,6.6,7.3,7,46,2,s
286.969404,87,1,7.9,6.88237,8.009683,4,14,0,s
157.574167,89,1,8,6.7,7.9,8,39,12,s
446.855998,85,1,7.5,6.88237,8.009683,5,40,0,m
117.216279,85,1,9.1,7.2,8.3,8.530885,29,17,m
8146.569933,85,1,8,7.2,7.8,7,55,0,s
166.573294,86,1,7.3,6.88237,7.3,8.530885,40,8,s
5193.107442,88,1,8.8,7,8,8,35,0,s
181.421868,89,1,8.3,6.88237,8.009683,9,22,14,m
45.760899,89,1,8,6.7,7.9,8,39,7,m
694.567719,85,1,7.4,6.2,7.1,8.530885,10,69,s
271.444075,85,1,9.1,7.2,8.3,8.530885,29,9,l
547.243772,85,1,9.1,7.2,8.3,8.530885,29,6,m
1809.386502,60,1,8.6,7.2,8.4,8.530885,30,13,m
124.908516,85,1,9.1,7.2,8.3,8.530885,29,7,m
261.970912,60,1,9.1,7,8.8,8.530885,30,8,l
5925.743798,60,1,9.1,7,8.8,8.530885,30,1,m
40.70415,89,1,8.3,6.88237,8.009683,9,22,9,m
310.063493,85,1,8.2,6.88237,8.009683,6,7,7,s
4949.5752,80,1,9,6.88237,8.5,7,22,0,l
79.187228,60,1,7.8,6.5,7.3,8.530885,20,11,l
15650.41348,86,1,9.5,6.88237,8.5,12,33,0,m
5.880386,85,1,6.7,6.88237,6.7,8.530885,26.742663,18,m
130.292299,60,1,7.8,6.5,7.3,8.530885,20,17,l
21.77481,85,1,6.2,5.8,6.2,8,15,0,s
4969.6173,80,1,9,6.88237,8.5,7,22,0,m
172.145189,81,1,8.1,7.1,8.1,8.530885,18,12,l
221.20388,85,1,7.4,6.88237,7.4,8.530885,26.742663,0,m
264.319025,60,1,9.1,7,8.8,8.530885,30,6,l
7351.184912,81,1,8.8,7.2,8.5,9,22,0,m
4953.862929,80,1,8.8,7,8,8,35,10,s
8390.06938,88,1,8,7.2,7.8,7,55,0,s
5146.670648,85,1,7.9,6.88237,7.9,9,47,0,s
156.178865,85,1,8.3,6.88237,8.1,8.530885,15,0,s
133.167768,85,1,9.1,7.2,8.3,8.530885,29,8,l
3903.985239,80,1,7.9,6.88237,8.009683,4,14,0,s
47.535761,60,1,7.8,6.5,7.3,8.530885,20,13,l
17.110853,84,1,7.1,6.1,7.1,8.530885,32,10,m
150.007412,85,1,9.1,7.2,8.3,8.530885,29,11,l
9608.992187,88,1,8.1,6.88237,8.009683,9,19,0,s
41.46707,83,3,7.8,6.88237,7.8,8.530885,26.742663,0,m
5167.732316,80,1,8.3,6.5,7.8,8.530885,10,6,s
146.666459,85,1,8.2,6.88237,8.2,8.530885,26.742663,6,l
1845.978163,73,1,7.8,6.7,7.9,6,33,79,s
206.341571,85,1,9.1,7.2,8.3,8.530885,29,8,l
88.147599,85,1,6.9,6.88237,6.9,8.530885,30,38,s
216.631565,85,1,7,6.88237,8.009683,8.530885,26.742663,0,s
114.080769,85,1,9.1,7.2,8.3,8.530885,29,12,l
3950.357359,80,1,8.6,6.88237,9.1,8.530885,33,41,m
4186.438366,85,3,7,5.8,7.1,8.530885,25,8,s
1619.33799,60,1,9.1,7,8.8,8.530885,30,7,l
259.300729,60,1,9.1,7,8.8,8.530885,30,12,l
469.044673,85,1,9.1,7.2,8.3,8.530885,29,0,s
10838.93707,89,1,8.6,6.88237,9.1,8.530885,33,0,s
258.688988,60,1,9.1,7,8.8,8.530885,30,8,m
125.304262,85,1,9.1,7.2,8.3,8.530885,29,8,m
105.906353,85,1,9.1,7.2,8.3,8.530885,29,10,l
4410.35224,85,1,8,6.4,7.7,6,19,72,s
1735.101028,60,1,9.1,7,8.8,8.530885,30,4,m
44.851472,82,1,8.1,6.8,7.9,8.530885,24,12,m
369.629217,85,1,7,5.8,7,8.530885,15,0,s
10.195373,85,3,7.5,6.9,7.2,9,10,6,m
136.391167,88,1,7.7,6.88237,7.7,8.530885,60,7,m
181.41942,89,1,8.3,6.88237,8.009683,9,22,7,s
1767.218365,60,1,9.1,7,8.8,8.530885,30,9,m
56.08193,89,1,8,6.7,7.9,8,39,15,m
245.130701,60,1,7.8,5.7,7.2,8.530885,18,5,l
909.90735,85,1,7.7,6.6,7.6,8,17,113,s
76.878281,85,3,7.5,6.9,7.2,9,10,3,s
77.736055,85,1,7.8,6.8,7.7,8,24,0,s
44.0153,60,1,7.8,6.5,7.3,8.530885,20,8,m
55.89033,83,3,7.5,6.88237,8.009683,9,20,16,m
110.00278,83,1,7.6,6.88237,7.6,9,26.742663,0,m
228.429909,85,1,8.4,6.88237,8.5,8.530885,15,55,l
102.675534,85,1,9.1,7.2,8.3,8.530885,29,10,l
5929.397603,85,1,7.9,5.8,7.9,8.530885,33,7,s
256.853418,82,1,6.7,6.88237,8.009683,3,24,0,s
471.660443,89,3,8.2,6.88237,8.6,9,60,9,s
62.927124,85,1,6.6,6.2,6.6,5,14,71,s
282.459585,82,1,7.9,6.3,7.9,6,48,126,s
2228.407332,88,3,9.2,6.88237,8.4,10,25,3,s
3895.101329,80,1,8.6,6.88237,9.1,8.530885,33,0,m
16942.06802,89,1,9.1,7.2,8.3,8.530885,29,0,m
2133.534557,60,1,9.1,7,8.8,8.530885,30,2,m
3558.201607,80,1,8.6,6.88237,9.1,8.530885,33,13,m
205.471584,85,1,9.1,7.2,8.3,8.530885,29,15,l
10833.42504,80,1,9.5,6.88237,8.5,12,33,0,m
184.568652,89,1,9.5,6.88237,8.5,12,33,17,l
7736.348533,88,1,8.5,7.7,8.1,9,13,0,s
303.059817,85,1,7.7,6.6,7.6,8,17,4,s
124.869955,85,1,9.1,7.2,8.3,8.530885,29,10,l
234.643109,60,1,9.1,7,8.8,8.530885,30,8,l
733.098895,82,1,7.2,5.9,7.3,8.530885,35,0,s
90.501384,85,1,9.1,7.2,8.3,8.530885,29,7,m
271.123676,85,1,7.4,6.6,7.4,10,66,0,s
1390.513013,60,1,9.1,7,8.8,8.530885,30,6,m
2228.200288,88,1,8.2,6.88237,8.009683,8,32,23.263212,s
146.011184,89,1,8.3,6.88237,8.009683,9,22,10,m
2123.408873,60,1,9.1,7,8.8,8.530885,30,29,m
171.124984,85,1,8.2,6.88237,8.009683,6,7,154,l
141.687979,89,1,8.8,7.2,8.5,9,22,37,l
10813.23808,50,1,9.1,7,8.8,8.530885,30,4,s
2015.361158,60,1,9.1,7,8.8,8.530885,30,10,l
4457.690411,80,3,7.8,6.88237,7.9,11,35,0,s
14287.49711,88,1,9.1,7,8.8,8.530885,30,33,s
182.153198,89,1,8.3,6.88237,8.009683,9,22,14,m
1837.338693,89,1,8.5,6.88237,8.5,11,25,0,m
7381.812547,81,3,8.6,6.88237,7.3,6,15,13,m
249.162479,85,1,9.1,7.2,8.3,8.530885,29,7,l
208.973507,81,1,8.1,7.1,8.1,8.530885,18,23,m
62.687596,83,3,7.5,6.88237,8.009683,9,20,0,l
298.950686,60,1,9.1,7,8.8,8.530885,30,10,l
97.53843,85,1,8.3,6.88237,8.1,8.530885,15,0,l
7933.771877,88,1,9.1,7.2,8.3,8.530885,29,36,s
15955.94686,89,1,8.3,6.5,7.8,8.530885,10,0,s
133.911006,85,1,9.1,7.2,8.3,8.530885,29,13,l
81.591056,85,1,9.1,7.2,8.3,8.530885,29,5,l
7601.713095,81,1,9.5,6.88237,8.5,12,33,12,m
486.519819,85,1,9.1,7.2,8.3,8.530885,29,9,m
79.368004,60,1,7.8,6.5,7.3,8.530885,20,4,l
7221.234275,73,1,8.6,8,8.6,11,33,506,s
299.035369,85,1,7.5,6.88237,7.5,7,30,0,s
257.299728,50,1,7.8,6.88237,8.009683,9,17,0,s
453.241651,85,1,9.1,7.2,8.3,8.530885,29,4,m
179.179898,89,1,8.3,6.88237,8.009683,9,22,0,m
562.891204,85,1,9.1,7.2,8.3,8.530885,29,3,m
4415.829179,60,1,9.1,7,8.8,8.530885,30,4,m
10970.50854,80,1,8.8,7.2,8.5,9,22,10,s
467.137714,85,1,7.4,6.3,7.2,10,56,0,s
4488.123058,81,1,7.5,6.4,7.3,8.530885,33,5,s
1954.358285,88,1,7.9,6.88237,8.009683,4,14,0,s
17836.28084,71,1,9.1,7.2,8.3,8.530885,29,0,s
10815.98606,81,1,9.5,6.88237,8.5,12,33,5,s
10638.71813,80,1,9.5,6.88237,8.5,12,33,22,m
657.307369,85,1,7.4,6.88237,7.4,8.530885,60,9,s
618.385089,85,1,9.1,7.2,8.3,8.530885,29,0,s
2522.12603,60,1,9.1,7,8.8,8.530885,30,5,m
1300.985153,85,1,8.3,6.88237,8.009683,10,40,7,s
255.161237,60,1,9.1,7,8.8,8.530885,30,12,l
3956.824368,80,1,8.6,6.88237,9.1,8.530885,33,11,m
232.745886,85,1,7.4,6.6,7.4,10,66,71,s
7242.127828,88,1,9.1,7.2,8.3,8.530885,29,0,s
1981.216209,85,1,7.6,6.88237,8.009683,7,32,6,s
76.707546,85,1,7.9,6.88237,7.9,8.530885,26.742663,0,l
447.903694,85,1,9.1,7.2,8.3,8.530885,29,4,m
497.337247,50,1,7.8,6.88237,7.3,7,22,0,s
63.164175,85,3,7.5,6.9,7.2,9,10,6,m
283.04847,85,1,9.1,7.2,8.3,8.530885,29,0,l
15577.13518,85,1,7.9,6.88237,7.8,10,43,0,s
166.109398,85,1,7.8,6.8,7.7,8,24,0,s
109.667336,85,1,8.3,6.88237,8.1,8.530885,15,6,l
4707.902729,80,1,7.9,6.4,7.4,8,24,0,s
68.19767,89,1,8.8,7.2,8.5,9,22,16,l
208.340133,81,1,8.1,7.1,8.1,8.530885,18,37,m
1030.191266,60,1,8.3,7,8,8.530885,25,3,s
5210.332298,60,1,7.8,6.5,7.3,8.530885,20,0,s
5470.151837,80,1,7.9,6.4,7.4,8,24,0,s
7941.183412,88,1,9.1,7.2,8.3,8.530885,29,0,s
14.524191,81,3,6.4,6.88237,6.8,8.530885,33,5,m
10676.96129,80,1,9.5,6.88237,8.5,12,33,12,m
352.3517,85,1,6.9,6.7,6.9,8.530885,10,11,s
9584.662431,81,1,9.1,7.2,8.3,8.530885,29,9,m
278.446929,85,1,8.4,6.88237,8.5,8.530885,15,13,m
307.846946,85,1,8.2,6.88237,8.009683,6,7,8,s
233.583312,85,1,8.2,6.88237,8.009683,6,7,0,s
80.704367,85,3,7.5,6.9,7.2,9,10,4,s
1623.30398,85,1,9.1,7.2,8.3,8.530885,29,4,s
858.700616,60,1,7.7,6.1,7.2,8.530885,20,7,s
2108.162124,88,1,7.9,6.88237,8.009683,4,14,0,s
148.779659,85,1,8.2,6.88237,8.009683,6,7,0,m
8772.153563,81,1,8.1,7.3,8.2,8.530885,10,0,s
3691.901159,80,1,8.6,6.88237,9.1,8.530885,33,39,m
95.536641,85,1,9.1,7.2,8.3,8.530885,29,8,m
161.208993,86,1,8.3,6.5,7.8,8.530885,10,0,l
168.056635,89,1,7.5,5.8,6.6,4,10,11,m
60.151064,85,1,7.6,6.88237,7.7,8.530885,35,24,s
303.022721,86,1,9,6.88237,8.5,7,22,182,s
371.727006,85,1,9.1,7.2,8.3,8.530885,29,0,m
8822.755631,81,1,9.5,6.88237,8.5,12,33,0,m
439.592624,85,1,7.8,6.8,7.7,8,24,6,s
431.555135,85,1,7.1,6.3,7.1,8,50,7,s
124.952599,85,1,9.1,7.2,8.3,8.530885,29,8,l
8758.189468,89,1,8.1,6.88237,8.009683,9,19,0,s
141.030089,89,1,8.3,6.88237,8.009683,9,22,13,l
63.050163,83,3,7.5,6.88237,8.009683,9,20,25,m
5265.095075,80,1,7.2,7.2,7.2,4,65,0,s
9147.848834,88,1,8.2,6.88237,8.009683,8,25,0,s
500.500817,85,1,6.9,6.4,6.9,8.530885,33,6,s
404.304483,85,3,7.6,6.88237,7.3,8.530885,10,162,s
1816.281007,60,1,9.1,7,8.8,8.530885,30,8,m
2725.499726,85,3,7.6,6.88237,7.3,8.530885,10,647,l
17.456581,85,3,7.5,6.9,7.2,9,10,8,m
126.355603,85,1,9.1,7.2,8.3,8.530885,29,7,m
1995.097538,82,1,7.2,6.88237,8.009683,8.530885,34,0,s
4878.158795,85,1,7.9,6.6,7.9,8,49,0,s
153.100657,85,1,9.1,7.2,8.3,8.530885,29,9,m
174.584093,89,1,8.3,6.88237,8.009683,9,22,0,l
219.729402,85,1,8.2,6.88237,8.009683,6,7,210,m
5096.785543,86,1,7.6,6.6,7.5,8.530885,17,0,s
181.256893,89,1,8.3,6.88237,8.009683,9,22,11,l
1605.388172,60,1,7.7,6.1,7.2,8.530885,20,0,s
376.173894,85,1,8.4,6.88237,8.5,8.530885,15,7,l
1288.024995,85,1,8.2,6.88237,7.8,9,30,6,s
12.744792,50,3,7,6.88237,7.2,11,40,13,l
256.775884,85,1,8.4,6.88237,8.5,8.530885,15,53,l
15.64768,85,3,7.5,6.9,7.2,9,10,6,m
2037.137449,60,1,9.1,7,8.8,8.530885,30,0,m
109.054105,85,1,9.1,7.2,8.3,8.530885,29,8,m
2496.239793,60,1,9.1,7,8.8,8.530885,30,0,m
264.163646,85,1,9.1,7.2,8.3,8.530885,29,9,l
179.85966,85,1,7.7,6.6,7.6,8,17,0,s
16839.88755,85,1,8,6.6,7.3,7,46,0,s
124.607186,85,1,9.1,7.2,8.3,8.530885,29,4,l
8636.254434,88,1,9.1,7.2,8.3,8.530885,29,0,s
14.698514,85,3,7.5,6.9,7.2,9,10,5,m
604.960644,85,0,8.30368,4.9,8.009683,8.530885,10,22,s
161.177324,85,1,7.8,6.4,7.5,9,27,8,s
45.823399,85,3,7.5,6.9,7.2,9,10,7,m
134.108497,85,1,9.1,7.2,8.3,8.530885,29,7,m
648.937602,86,1,8.2,6.88237,7.8,9,30,0,s
6221.695801,80,1,9.1,7.2,8.3,8.530885,29,12,m
2391.959795,85,1,7.5,6.5,7.5,4,11,67,s
345.379401,85,1,9.1,7.2,8.3,8.530885,29,7,m
11172.62598,80,1,9.5,6.88237,8.5,12,33,0,m
5453.802433,85,1,7.9,6.88237,7.9,9,47,6,s
180.244124,60,1,8.6,7.2,8.4,8.530885,30,13,m
10480.85548,81,1,8.2,6.88237,8.009683,8,25,7,s
259.978381,60,1,9.1,7,8.8,8.530885,30,13,l
6104.297628,80,1,8.3,6.88237,7.6,8.530885,26.742663,217,l
11148.90178,80,1,9.5,6.88237,8.5,12,33,7,m
425.60376,85,1,9.1,7.2,8.3,8.530885,29,14,m
105.262527,50,3,7.7,6.88237,7.8,9,20,13,m
150.049038,85,1,8.3,6.88237,8.1,8.530885,15,0,m
133.318883,85,1,9.1,7.2,8.3,8.530885,29,6,l
629.333461,85,1,8.2,6.88237,7.8,9,30,8,s
10267.69399,80,1,8.3,6.88237,8.3,11,40,0,m
136.764698,85,1,9.1,7.2,8.3,8.530885,29,10,m
10079.95676,81,1,9.1,7,8.8,8.530885,30,23.263212,s
5163.368045,80,1,8.3,6.5,7.8,8.530885,10,6,s
4955.672374,80,1,9,6.88237,8.5,7,22,0,s
238.0152,82,1,6.6,6.88237,8.009683,3,22,7,s
503.004302,85,1,9.1,7.2,8.3,8.530885,29,7,m
179.269125,81,1,8.1,7.1,8.1,8.530885,18,8,m
58.963119,85,1,6.2,5.8,6.2,8,15,0,s
120.475747,86,1,7,6.5,7,8.530885,34,12,s
3657.483198,88,3,8.6,6.88237,7.3,6,15,53,m
856.212018,85,1,6.9,6.88237,6.9,8.530885,30,63,s
150.094004,89,1,8.3,6.88237,8.009683,9,22,12,m
10609.1661,80,1,9.5,6.88237,8.5,12,33,36,m
183.076986,89,1,8.3,6.88237,8.009683,9,22,11,s
212.584797,85,1,9.1,7.2,8.3,8.530885,29,5,l
455.609908,85,1,8.3,6.88237,8.1,8.530885,15,0,s
163.703848,85,1,9.1,7.2,8.3,8.530885,29,9,l
372.751145,83,6,8.30368,6.88237,8.009683,7,26.742663,10,m
185.477299,83,1,7.6,6.88237,8.009683,5,105,0,s
52.974418,85,1,6.7,6.1,6.8,5,8,0,s
13726.5949,89,1,8.6,6.88237,9.1,8.530885,33,0,s
58.379407,60,3,6.9,6.2,6.9,7,13,11,m
261.325411,60,1,9.1,7,8.8,8.530885,30,10,l
10339.32943,88,1,8.1,6.88237,8.009683,9,19,23.263212,s
1032.448205,85,1,8.2,6.88237,8.009683,6,7,72,s
39.064117,60,1,7.8,6.5,7.3,8.530885,20,7,m
4595.696428,87,1,9.1,7.2,8.3,8.530885,29,15,s
149.911336,85,1,8.3,6.88237,8.1,8.530885,15,94,s
512.932509,85,1,8.5,7.7,8.1,9,13,0,s
1509.074912,81,1,7.7,6.88237,8.009683,8.530885,37,0,s
2571.075774,81,1,8.1,7.1,8.1,8.530885,18,8,s
3895.101329,80,1,8.6,6.88237,9.1,8.530885,33,0,m
2125.757142,88,3,9.2,6.88237,8.4,10,25,28,m
187.659287,88,1,7.6,5.4,7.7,8.530885,30,7,l
7.996613,85,3,7.5,6.9,7.2,9,10,7,m
185.363466,85,1,6.6,5.8,6.4,8.530885,28,21,s
260.052869,60,1,9.1,7,8.8,8.530885,30,7,l
4950.791726,80,1,9,6.88237,8.5,7,22,0,m
4434.674723,80,3,9.2,6.88237,8.4,10,25,0,m
2725.499726,85,1,7.9,6.88237,7.9,8.530885,35,647,m
234.912951,60,1,9.1,7,8.8,8.530885,30,14,l
122.241761,85,1,9.1,7.2,8.3,8.530885,29,11,m
154.199763,89,1,7.5,5.8,6.6,4,10,12,m
7283.986637,73,1,8.6,8,8.6,11,33,0,s
69.690199,83,3,7.5,6.88237,8.009683,9,20,12,m
22.007126,84,1,7.3,6.4,7.5,8.530885,33,0,l
149.879789,85,1,8.1,6.88237,8.3,9,45,0,m
34.631918,74,1,7.6,6.3,7.4,10,10,0,m
6226.095471,80,1,9.1,7.2,8.3,8.530885,29,9,m
39.415403,50,3,7.7,6.88237,7.8,9,20,2,m
99.041828,85,1,9.1,7.2,8.3,8.530885,29,7,l
195.090226,84,1,8.7,6.88237,8.7,9,33,0,m
3635.527206,88,3,9.2,6.88237,8.4,10,25,0,s
186.020727,82,1,8.1,6.8,7.9,8.530885,24,16,m
439.339642,85,1,9.1,7.2,8.3,8.530885,29,4,m
2500.037172,60,1,9.1,7,8.8,8.530885,30,8,m
132.346379,85,1,6.8,6.88237,8.009683,8.530885,40,0,s
724.291803,86,1,8.2,6.88237,7.8,9,30,0,s
7110.148807,88,1,8,6.7,7.9,8,39,33,s
565.142306,89,1,7,6.88237,8.009683,8.530885,17,0,s
6326.442161,80,1,9.1,7.2,8.3,8.530885,29,0,m
80.417605,85,1,7.1,6.4,6.9,8.530885,28,0,m
5182.692352,88,1,9,6.88237,8.5,7,22,0,s
6362.174627,60,1,9.1,7,8.8,8.530885,30,0,s
2485.755387,85,1,7.8,7.1,8,9,59,0,s
10177.32853,88,1,7.9,6.3,7.9,6,48,0,s
2497.305036,60,1,9.1,7,8.8,8.530885,30,0,m
24.286313,50,1,7,6.88237,8.009683,8,21,13,m
565.119803,82,1,7,6.88237,8.009683,8,11,23.263212,s
29.77184,82,1,7.1,6.4,7.1,8.530885,25,12,s
87.405044,85,1,9.1,7.2,8.3,8.530885,29,10,l
55.689749,85,1,7.5,6.88237,8.009683,5,40,11,s
133.120299,85,1,9.1,7.2,8.3,8.530885,29,7,l
310.10866,85,1,7.2,6.2,6.8,8.530885,37,0,s
194.686253,85,1,8.2,6.88237,8.009683,6,7,79,m
615.654622,87,1,8,6.4,7.7,6,19,0,s
1648.314569,60,1,9.1,7,8.8,8.530885,30,6,l
1456.424273,60,1,7.9,6.88237,8.009683,8.530885,26.742663,0,s
210.167505,89,1,7.5,5.8,6.6,4,10,15,m
11598.34456,89,3,9.2,6.88237,8.4,10,25,10,s
503.445643,60,3,7.7,6.88237,8.009683,4,15,10,s
152.583992,85,1,9.1,7.2,8.3,8.530885,29,22,l
291.998272,85,1,8.3,6.9,8.1,8.530885,27,6,s
7543.648093,88,1,8.3,6.88237,7.6,8.530885,26.742663,144,s
48.82344,60,1,7.8,6.5,7.3,8.530885,20,8,l
6027.559788,80,1,8.1,6.88237,8.009683,9,19,0,s
276.164399,85,1,7.1,6.3,7.1,8,50,19,s
186.010254,81,1,8.1,7.1,8.1,8.530885,18,8,l
533.091075,60,1,9.1,7,8.8,8.530885,30,0,m
4954.77356,80,1,9,6.88237,8.5,7,22,0,s
388.688187,85,1,8.3,6.88237,8.3,8.530885,26.742663,6,s
181.327798,89,1,8.3,6.88237,8.009683,9,22,13,s
3076.00349,80,1,7.9,6.88237,7.9,9,47,6,s
59.763543,60,1,7.8,6.5,7.3,8.530885,20,14,m
668.282155,85,1,7.5,6.88237,8.009683,5,40,8,s
3655.033987,80,3,8.6,6.88237,7.3,6,15,0,l
145.753491,85,1,8.2,6.88237,8.009683,6,7,8,m
16749.12777,85,1,9.5,6.88237,8.5,12,33,0,m
333.439513,50,1,5.7,5.5,5.5,8.530885,8,7,s
514.066824,86,1,7.2,6.6,7.2,8.530885,26.742663,0,s
169.196954,81,1,8.1,7.1,8.1,8.530885,18,11,l
2108.444856,60,1,9.1,7,8.8,8.530885,30,7,m
88.784393,85,1,9.1,7.2,8.3,8.530885,29,6,m
254.317501,60,1,9.1,7,8.8,8.530885,30,10,l
17638.14454,85,1,9.5,6.88237,8.5,12,33,0,s
183.550628,89,1,8.3,6.88237,8.009683,9,22,12,m
3063.202505,88,3,9.2,6.88237,8.4,10,25,0,s
180.858222,85,1,9.1,7.2,8.3,8.530885,29,30,s
2725.499726,85,1,7.9,6.88237,7.9,8.530885,35,647,s
221.807559,60,1,7.7,6.1,7.2,8.530885,20,11,m
579.320197,85,1,6.9,6.88237,8.009683,8,9,0,s
1309.747284,85,1,8.3,7.3,8.1,9,14,6,s
378.146833,85,1,8.1,6.88237,8.3,9,45,19,s
233.245018,85,1,8.3,6.88237,8.1,8.530885,15,0,s
5925.841294,60,1,9.1,7,8.8,8.530885,30,0,m
183.027047,89,1,8.3,6.88237,8.009683,9,22,0,m
153.131722,89,1,8.8,7.2,8.5,9,22,20,m
135.403203,85,1,8.2,6.88237,8.009683,6,7,31,m
4109.198051,88,1,7.5,6.5,7.6,8,24,0,s
5983.313973,80,1,7.8,7.1,8,9,59,0,s
9312.136788,88,1,8.1,6.88237,8.009683,9,19,33,s
63.033103,89,1,8,6.7,7.9,8,39,10,m
37.066107,88,1,7.7,6.5,7.5,8.530885,14,24,l
198.295721,84,1,8,6.4,7.9,6,33,0,s
7599.506153,81,1,9.5,6.88237,8.5,12,33,5,m
714.766487,82,1,8,6,8.2,8.530885,17,36,s
70.465845,82,1,7.5,6.88237,8.009683,6,41,17,s
6339.663517,60,1,9.1,7,8.8,8.530885,30,7,s
18449.5213,84,1,8.8,7.2,8.5,9,22,0,s
181.374019,89,1,8.3,6.88237,8.009683,9,22,13,s
11021.99175,80,1,9.5,6.88237,8.5,12,33,10,m
181.409941,89,1,8.3,6.88237,8.009683,9,22,13,s
10731.24183,81,1,8.2,6.88237,8.009683,8,25,0,s
247.606932,85,1,9.1,7.2,8.3,8.530885,29,9,l
3029.987067,85,1,8.4,6.88237,8.3,11,15,0,s
50.778747,60,1,7.8,6.5,7.3,8.530885,20,10,l
413.286971,82,1,7.4,5.9,7.7,8,48,17,s
43.956874,60,1,7.8,6.5,7.3,8.530885,20,5,m
2725.499726,60,1,9.1,7,8.8,8.530885,30,647,m
1495.011727,73,1,8.5,6.88237,8.009683,11,26.742663,108,m
39.416133,89,1,8.8,7.2,8.5,9,22,19,l
1371.987222,85,1,8.3,7.3,8.1,9,14,8,s
18416.3075,84,1,8.8,7.2,8.5,9,22,0,s
125.746317,85,1,9.1,7.2,8.3,8.530885,29,7,m
16022.62592,87,1,8.1,6.88237,8.009683,8.530885,48,23.263212,s
9545.102322,81,1,9.1,7.2,8.3,8.530885,29,10,m
3781.93022,80,1,8.6,6.88237,9.1,8.530885,33,0,m
5602.766264,80,1,8.4,6.88237,8.5,8.530885,15,14,s
40.899448,60,1,7.8,6.5,7.3,8.530885,20,6,m
313.839514,85,1,6.9,6.88237,8.009683,8,9,0,s
425.652162,85,1,7.1,6.88237,8.009683,8.530885,26.742663,0,s
7302.237431,81,1,9.1,7.2,8.3,8.530885,29,0,s
175.451165,85,1,9.1,7.2,8.3,8.530885,29,13,l
181.557344,89,1,8.3,6.88237,8.009683,9,22,18,m
213.890296,85,1,7.8,6.8,7.7,8,24,9,s
220.820668,85,1,9.1,7.2,8.3,8.530885,29,7,l
58.262192,89,1,8.2,6.88237,8.009683,8,25,13,m
93.154167,85,3,7.5,6.9,7.2,9,10,5,m
94.602954,85,1,9.1,7.2,8.3,8.530885,29,13,l
1644.287658,87,1,8.3,6.5,7.8,8.530885,10,68,s
841.051308,60,1,7.8,6.88237,8.009683,5,24,0,s
58.649684,85,1,7.5,6.88237,8.009683,5,40,0,l
1031.341195,81,1,7.5,6.88237,8.009683,8.530885,10,0,s
135.217722,85,1,8.3,6.9,8.1,8.530885,27,9,m
441.194795,86,1,7.6,6.3,7.4,8.530885,24,27,s
66.862234,82,1,7.6,6.5,7.8,8.530885,13,8,s
1867.296118,60,1,7.7,6.1,7.2,8.530885,20,0,s
119.651948,85,1,9.1,7.2,8.3,8.530885,29,8,l
6.130672,50,1,8.30368,6.88237,8.009683,8.530885,26.742663,46,l
1966.765298,60,1,9.1,7,8.8,8.530885,30,0,m
1739.240052,89,1,8.3,6.88237,8.3,11,40,58,m
117.561985,86,1,8.8,7,8,8,35,0,m
9126.047598,89,1,8.1,6.88237,8.009683,9,19,0,s
17318.5141,85,1,8,6.7,7.8,8,40,6,s
350.310416,85,1,9.1,7.2,8.3,8.530885,29,9,m
996.97739,60,1,9.1,7,8.8,8.530885,30,0,m
1819.628318,60,1,9.1,7,8.8,8.530885,30,9,m
11861.77092,82,1,8.3,6.88237,8.009683,9,22,0,s
536.497674,85,1,9.1,7.2,8.3,8.530885,29,25,s
149.62051,85,1,9.1,7.2,8.3,8.530885,29,20,l
5087.143298,88,1,8.6,6.88237,9.1,8.530885,33,0,s
179.690134,89,1,8.3,6.88237,8.009683,9,22,0,l
686.089996,85,1,7.8,6.8,7.7,8,24,49,s
3872.188444,85,3,8.2,6.5,8.1,9,33,67,s
581.392323,60,1,9.1,7,8.8,8.530885,30,0,l
58.175332,83,3,7.5,6.88237,8.009683,9,20,16,m
135.362912,85,1,9.1,7.2,8.3,8.530885,29,8,m
242.016444,60,1,7.8,5.7,7.2,8.530885,18,11,l
27.585455,80,4,6.9,6.88237,8.009683,7,6,7,s
97.461671,85,1,9.1,7.2,8.3,8.530885,29,11,l
1617.462114,60,1,9.1,7,8.8,8.530885,30,11,l
220.392536,85,1,9.1,7.2,8.3,8.530885,29,8,l
214.596884,85,1,9.1,7.2,8.3,8.530885,29,6,l
142.093391,83,1,8.6,6.88237,8.2,6,25,4,s
187.454855,81,1,8.1,7.1,8.1,8.530885,18,69,l
182.430045,89,1,8.3,6.88237,8.009683,9,22,18,s
16980.08662,85,1,9.5,6.88237,8.5,12,33,0,m
137.53984,83,1,7.1,6.88237,8.009683,8.530885,33,4,s
17658.32963,85,1,9.5,6.88237,8.5,12,33,0,s
9.358414,85,3,7.5,6.9,7.2,9,10,6,m
318.461521,85,1,9.1,7.2,8.3,8.530885,29,10,m
9135.98125,81,1,8.8,7,8,8,35,5,s
96.112149,60,1,7.8,6.5,7.3,8.530885,20,6,s
185.798331,85,1,9.1,7.2,8.3,8.530885,29,8,m
11.438455,50,1,6.9,6.88237,6.9,10,35,8,m
10252.35522,80,1,8.4,6.7,8.2,8,33,0,s
392.28678,85,1,8.1,6.88237,8.3,9,45,72,l
403.555075,85,1,9.1,7.2,8.3,8.530885,29,8,m
8427.650894,88,1,8.4,6.88237,8.5,8.530885,15,5,s
74.418327,60,1,7.8,6.5,7.3,8.530885,20,12,m
9076.732767,89,1,8.1,6.88237,8.009683,9,19,0,s
257.064915,85,1,8.4,6.88237,8.5,8.530885,15,36,m
68.181037,89,1,8.8,7.2,8.5,9,22,19,l
3242.376137,88,3,9.2,6.88237,8.4,10,25,0,s
10825.38301,88,1,8.1,6.88237,8.009683,9,19,3,s
5108.258392,85,3,9.2,6.88237,8.4,10,25,20,s
80.736691,86,1,7,6.88237,8.009683,8.530885,26.742663,101,m
79.007087,85,1,9.1,7.2,8.3,8.530885,29,7,l
75.123082,50,3,7,6.88237,7.2,11,40,0,l
2015.314949,60,1,9.1,7,8.8,8.530885,30,14,l
145.258994,89,1,8.3,6.88237,8.009683,9,22,16,l
26.357664,85,3,7.5,6.9,7.2,9,10,6,m
181.984416,89,1,8.3,6.88237,8.009683,9,22,6,s
255.15801,60,1,9.1,7,8.8,8.530885,30,8,l
22.266031,60,3,7.8,6.5,7.5,11,28,3,l
80.325909,85,1,7.8,6.8,7.7,8,24,12,m
201.561294,81,1,8.1,7.1,8.1,8.530885,18,23,l
100.487408,85,1,9.1,7.2,8.3,8.530885,29,7,m
3422.08052,60,1,9.1,7,8.8,8.530885,30,0,s
30.328503,50,1,7,6.88237,8.009683,8,21,6,m
633.581377,89,1,8.1,6.88237,7.5,9,38,0,s
128.232686,85,1,9.1,7.2,8.3,8.530885,29,10,l
1008.23597,86,3,7.5,6.9,7.2,9,10,7,s
496.401573,85,1,9.1,7.2,8.3,8.530885,29,9,m
16965.76041,85,1,9.5,6.88237,8.5,12,33,101,m
96.799249,85,1,9.1,7.2,8.3,8.530885,29,10,m
367.971822,85,1,8.1,6.88237,8.3,9,45,6,s
718.303465,85,1,9.1,7.2,8.3,8.530885,29,0,m
108.212171,85,1,9.1,7.2,8.3,8.530885,29,7,m
3146.968869,81,1,7.8,6.6,8.1,8.530885,29,90,s
4865.603567,80,1,7.8,6.1,7.8,10,33,0,s
81.39602,85,1,9.1,7.2,8.3,8.530885,29,8,l
12954.46758,89,3,8.6,6.88237,7.3,6,15,0,s
6949.983707,85,3,7.7,6,7.2,9,2,0,s
17058.3992,85,1,9.5,6.88237,8.5,12,33,21,m
273.853437,85,1,8.3,6.88237,8.1,8.530885,15,0,s
81.050058,85,1,7.5,6.88237,7.5,7,30,7,s
580.80878,83,1,7.1,6.88237,8.009683,9,65,4,s
135.056556,85,1,9.1,7.2,8.3,8.530885,29,13,l
1333.473094,85,1,8.3,6.5,7.8,8.530885,10,69,s
146.830417,89,1,8.3,6.88237,8.009683,9,22,17,m
122.110054,60,1,8.4,6.9,8.5,8.530885,34,6,m
2592.663613,80,1,7.9,6.6,7.6,6,33,0,s
509.887189,85,1,9.1,7.2,8.3,8.530885,29,10,m
4587.744387,80,3,9.2,6.88237,8.4,10,25,0,s
5187.516162,60,1,9.1,7,8.8,8.530885,30,0,s
100.50728,85,1,9.1,7.2,8.3,8.530885,29,10,l
1384.391549,60,1,9.1,7,8.8,8.530885,30,0,m
96.795119,85,1,9.1,7.2,8.3,8.530885,29,6,l
101.362911,88,3,8.30368,6.88237,8.009683,7,26.742663,8,m
86.989392,85,1,6.9,6.88237,6.9,8.530885,30,6,s
8773.183315,81,1,9.5,6.88237,8.5,12,33,10,s
1837.037354,85,1,7,5.8,7,8.530885,15,0,s
46.437663,60,1,7.8,6.5,7.3,8.530885,20,0,s
227.775015,89,1,8.3,6.88237,8.009683,9,22,11,m
180.623165,60,1,8.6,7.2,8.4,8.530885,30,8,m
3843.115287,88,1,7.9,6.88237,8.009683,6,109,12,s
24.123547,85,1,8.2,6.88237,8.2,8.530885,26.742663,0,l
17638.19291,85,1,9.5,6.88237,8.5,12,33,4,s
755.279708,85,1,7.8,6.8,7.7,8,24,44,m
232.491229,85,1,7.9,6.88237,7.9,8.530885,35,0,s
182.395912,89,1,8.3,6.88237,8.009683,9,22,11,s
4704.658658,80,1,7.3,6.88237,7.3,8.530885,36,6,s
284.924915,87,1,7.7,6.5,7.5,8.530885,14,0,s
4291.351008,85,1,8.6,6.88237,9.1,8.530885,33,67,s
4880.762132,80,1,7.6,6.4,7.3,8.530885,45,0,s
6566.237955,82,1,9,6.88237,8.5,7,22,493,s
422.922251,85,1,9.1,7.2,8.3,8.530885,29,7,s
700.520321,85,3,7.5,6.9,7.2,9,10,0,s
258.453013,85,1,9.1,7.2,8.3,8.530885,29,12,l
24.182018,74,3,7,6.8,7.3,8.530885,13,9,m
347.506071,89,1,8,6.6,7.3,7,46,0,s
33.290672,60,1,6.9,6.88237,8.009683,8,34,20,m
163.519113,85,1,9.1,7.2,8.3,8.530885,29,11,l
279.515517,85,1,8.4,6.88237,8.5,8.530885,15,0,m
7628.9644,81,1,9.5,6.88237,8.5,12,33,8,m
7575.341793,88,1,8.6,6.88237,9.1,8.530885,33,8,s
258.271383,85,1,9.1,7.2,8.3,8.530885,29,6,l
3264.736701,85,1,8.8,7,8,8,35,7,s
2108.064724,60,1,9.1,7,8.8,8.530885,30,3,m
6169.194706,80,1,8.3,6.88237,7.6,8.530885,26.742663,53,m
40.594902,89,1,8.3,6.88237,8.009683,9,22,16,m
6307.597971,80,1,9.1,7.2,8.3,8.530885,29,0,m
33.56655,85,1,6.9,6.4,6.7,10,44,4,s
3894.253336,80,1,8.6,6.88237,9.1,8.530885,33,3,s
1203.734181,81,1,8.1,6.88237,8.009683,9,19,0,s
2973.675912,85,1,7.6,6.4,7.6,6,50,0,s
16277.07028,89,1,8.3,6.5,7.8,8.530885,10,10,s
7276.221526,81,1,9.1,7,8.8,8.530885,30,0,s
13155.27103,89,1,9.1,7.2,8.3,8.530885,29,0,m
181.597602,89,1,8.3,6.88237,8.009683,9,22,14,m
20.477257,82,1,7.1,6.4,7.1,8.530885,25,11,l
1495.479745,81,1,8.1,6.88237,8.009683,9,19,23.263212,s
181.469699,89,1,8.3,6.88237,8.009683,9,22,11,m
130.54357,85,1,9.1,7.2,8.3,8.530885,29,7,m
10347.36894,81,1,8.3,6.88237,8.3,11,40,0,s
12327.77499,82,1,7.4,6.8,8,8.530885,21,23.263212,s
9944.101379,81,1,8.1,6.88237,7.5,9,38,0,s
6903.384338,88,1,7.9,6.6,7.9,5,33,0,s
450.561696,85,1,9.1,7.2,8.3,8.530885,29,4,m
10588.83926,80,1,7.8,6.88237,7.8,8,47,0,s
495.179074,60,1,9.1,7,8.8,8.530885,30,0,s
690.64233,85,3,6.8,6.3,6.9,8.530885,20,95,s
259.327986,85,1,9.1,7.2,8.3,8.530885,29,9,l
12242.81281,89,3,8.6,6.88237,7.3,6,15,10,s
16979.94351,85,1,9.5,6.88237,8.5,12,33,0,l
5196.667089,60,1,9.1,7,8.8,8.530885,30,4,s
3880.336866,89,1,8.4,6.7,8.2,8,33,0,s
269.844437,85,1,9.1,7.2,8.3,8.530885,29,9,l
181.730363,89,1,8.3,6.88237,8.009683,9,22,16,m
213.91253,81,1,8.1,7.1,8.1,8.530885,18,22,l
15638.69563,85,1,8.1,6.88237,7.5,9,38,67,s
176.431284,85,1,9.1,7.2,8.3,8.530885,29,9,l
1990.443894,85,1,7.4,6.3,7.4,6,73,8,s
400.999662,82,1,7.9,6.88237,8.009683,8,95,0,s
1988.002722,81,1,7.6,7,7.6,8.530885,34,0,s
164.589248,86,1,8.3,6.5,7.8,8.530885,10,0,l
51.597318,50,3,7.7,6.88237,7.8,9,20,3,m
209.171226,89,1,8.8,7.2,8.5,9,22,19,l
9199.827618,80,1,8.1,6.88237,7.5,9,38,0,s
805.668843,81,1,8.1,6.88237,8.009683,9,19,23.263212,s
2341.973275,89,1,8.2,6.88237,8.009683,8,25,0,s
2490.319133,60,1,9.1,7,8.8,8.530885,30,5,m
182.257036,89,1,8.3,6.88237,8.009683,9,22,20,m
24.430675,50,1,7,6.88237,8.009683,8,21,11,m
1771.066496,60,1,9.1,7,8.8,8.530885,30,0,l
271.554555,85,1,9.1,7.2,8.3,8.530885,29,4,l
87.818396,74,1,7.9,6.88237,8,8.530885,15,0,l
9520.747911,89,1,8.1,6.88237,8.009683,9,19,0,s
575.231774,85,1,7.8,6.4,7.5,9,27,0,s
172.561091,85,1,8.3,6.88237,8.1,8.530885,15,10,s
38.512934,60,1,7.8,6.5,7.3,8.530885,20,10,m
9994.895986,80,1,8.1,6.4,7.7,9,23,3,s
208.739681,88,1,6.6,5.8,6.4,8.530885,10,12,s
790.004466,85,1,7.5,6.4,7.3,8.530885,33,8,s
319.155174,87,1,7.9,6.88237,8.009683,6,109,8,s
130.941808,85,1,9.1,7.2,8.3,8.530885,29,6,m
8754.025121,81,1,9.5,6.88237,8.5,12,33,118,m
1329.138062,82,1,7.9,6.4,7.4,8,24,23.263212,s
204.132623,85,1,7.7,6.88237,7.7,8.530885,26.742663,0,m
182.338097,89,1,8.3,6.88237,8.009683,9,22,17,m
397.636194,85,1,7.5,6.88237,7.5,7,30,67,s
2579.193395,60,1,9.1,7,8.8,8.530885,30,3,m
105.676,85,1,7.5,6.88237,8.009683,5,40,4,s
81.724689,88,1,7.7,6.5,7.5,8.530885,14,12,m
96.717247,85,1,9.1,7.2,8.3,8.530885,29,6,l
74.745662,50,1,7,6.88237,8.009683,8,21,0,s
39.128374,60,1,7.8,6.5,7.3,8.530885,20,6,m
205.371185,85,1,5.5,6.1,5.5,8.530885,29,0,s
181.466731,89,1,8.3,6.88237,8.009683,9,22,11,m
333.679464,81,1,7.8,6.88237,8.009683,9,15,12,s
15.205389,60,1,6.9,6.88237,8.009683,8,34,13,m
181.595916,89,1,8.3,6.88237,8.009683,9,22,17,m
16964.88989,85,1,8.8,7.2,8.5,9,22,0,s
660.350071,81,1,8.1,7.1,8.1,8.530885,18,5,m
2497.66339,60,1,9.1,7,8.8,8.530885,30,0,s
2014.960044,60,1,9.1,7,8.8,8.530885,30,0,l
160.285419,82,1,8.1,6.8,7.9,8.530885,24,28,m
1056.973511,81,1,7.6,7,7.6,8.530885,34,0,s
8252.228975,88,1,8.2,6.88237,8.009683,6,7,0,s
731.543431,86,1,7.8,6.8,7.7,8,24,101,m
3656.205035,80,3,8.6,6.88237,7.3,6,15,0,l
156.384594,85,1,7.5,6.88237,7.5,8.530885,0,80,s
105.22086,85,1,7.1,6.88237,8.009683,8.530885,20,0,s
17442.61282,85,1,8,6.7,7.8,8,40,67,s
114.264283,85,1,9.1,7.2,8.3,8.530885,29,6,m
2.380379,85,1,6.7,6.3,6.6,8.530885,22,7,s
9059.806638,81,1,8.8,7.2,8.5,9,22,0,s
98.60483,85,1,9.1,7.2,8.3,8.530885,29,11,l
92.753567,85,1,9.1,7.2,8.3,8.530885,29,9,m
87.583801,85,1,9.1,7.2,8.3,8.530885,29,7,m
246.643502,85,1,9.1,7.2,8.3,8.530885,29,9,l
107.575769,83,3,8.2,6.5,8.1,9,33,24,m
220.250409,81,1,8.1,7.1,8.1,8.530885,18,11,m
793.831228,60,1,9.1,7,8.8,8.530885,30,13,m
13306.54364,89,1,9.1,7.2,8.3,8.530885,29,0,m
7533.931629,80,1,8.1,7.3,8,9,15,0,s
26.539191,84,1,7.3,6.4,7.5,8.530885,33,0,m
60.00607,83,3,7.5,6.88237,8.009683,9,20,7,m
134.088317,85,1,9.1,7.2,8.3,8.530885,29,7,m
9751.697499,81,1,8,6.7,7.9,8,39,11,s
13165.28002,89,1,9.1,7.2,8.3,8.530885,29,0,m
588.787683,85,1,7.8,6.8,7.7,8,24,0,s
4126.321524,85,1,8,6.4,7.7,6,19,0,s
546.253134,85,1,7.6,6.5,7.6,6,33,4,s
491.284329,85,1,8.1,6.88237,8.3,9,45,880,m
2498.975506,60,1,9.1,7,8.8,8.530885,30,8,m
64.81043,85,1,8.3,6.88237,8.1,8.530885,15,172,m
89.151239,85,1,9.1,7.2,8.3,8.530885,29,7,s
12.040239,85,5,6.4,6.88237,6.4,8.530885,26.742663,8,m
52.636283,89,1,6.4,6.88237,8.009683,8.530885,11,0,s
3571.685652,80,1,8.6,6.88237,9.1,8.530885,33,10,m
255.310419,85,1,9.1,7.2,8.3,8.530885,29,11,l
189.132746,85,1,7.5,6.88237,7.5,7,30,0,s
646.298707,60,1,9.1,7,8.8,8.530885,30,7,l
164.880104,50,3,7.7,6.88237,7.8,9,20,5,m
6091.51717,60,1,9.1,7,8.8,8.530885,30,0,m
9503.864536,88,1,8.4,6.7,8.2,8,33,0,s
181.296578,89,1,8.3,6.88237,8.009683,9,22,15,m
84.346704,85,1,8.2,6.88237,8.2,8.530885,26.742663,44,l
19.650706,50,1,7.6,6.3,7.8,10,13,1,m
2577.746653,81,1,9.1,7.2,8.3,8.530885,29,9,s
3305.771347,80,1,8.2,6.88237,8,10,60,0,s
30.677945,50,1,7,6.88237,8.009683,8,21,8,s
125.19017,85,1,9.1,7.2,8.3,8.530885,29,10,l
69.462198,83,3,7.5,6.88237,8.009683,9,20,9,m
96.745413,85,1,6.6,6.88237,6.6,8.530885,20,0,s
72.156946,89,1,7.1,6.88237,7.1,6,30,19,s
372.299675,82,1,6.8,6.4,6.8,6,33,0,s
12059.00243,81,3,9.2,6.88237,8.4,10,25,64,s
1638.736798,60,1,9.1,7,8.8,8.530885,30,9,l
533.931727,85,1,7.8,6.8,7.7,8,24,31,s
134.656199,85,1,9.1,7.2,8.3,8.530885,29,12,l
1222.729636,85,1,9.1,7.2,8.3,8.530885,29,0,s
9018.343133,81,1,9.1,7.2,8.3,8.530885,29,0,s
268.177956,85,1,9.1,7.2,8.3,8.530885,29,7,m
93.691096,85,1,9.1,7.2,8.3,8.530885,29,11,l
71.877688,85,1,8.3,6.9,8.1,8.530885,27,8,m
3616.680066,80,3,8.6,6.88237,7.3,6,15,0,l
5304.399673,80,1,7.8,6.3,7.6,7,33,11,s
5932.314815,88,1,8.8,7,8,8,35,0,s
3679.626709,80,3,8.6,6.88237,7.3,6,15,0,m
98.780828,86,1,8.3,7.3,8.1,9,14,3,l
65.351557,85,3,7.5,6.9,7.2,9,10,5,m
20.453489,85,1,7.4,6.88237,7.4,8.530885,26.742663,49,s
8.871794,85,3,7.5,6.9,7.2,9,10,11,m
142.384555,89,1,8.3,6.88237,8.009683,9,22,14,m
258.175471,86,1,8.5,7.7,8.1,9,13,0,s
6994.974446,81,1,9.1,7,8.8,8.530885,30,2,s
25.696594,84,1,6.7,6.3,6.6,8,11,5,m
91.977969,85,1,9.1,7.2,8.3,8.530885,29,12,l
10838.96334,80,1,9.5,6.88237,8.5,12,33,0,l
552.851275,85,1,7.8,6.8,7.7,8,24,357,s
147.207025,89,1,8.3,6.88237,8.009683,9,22,24,m
10224.60112,88,1,8.5,7.7,8.1,9,13,8,s
369.937524,85,1,6.9,6.88237,6.9,8.530885,30,4,s
137.926719,40,1,5.6,6.88237,5.6,8,18,0,s
14805.64702,85,1,8.1,6.4,7.7,9,23,95,s
130.752106,85,1,9.1,7.2,8.3,8.530885,29,7,m
4029.719943,85,1,8.6,6.88237,9.1,8.530885,33,0,s
149.465419,85,1,9.1,7.2,8.3,8.530885,29,19,l
95.896794,85,1,9.1,7.2,8.3,8.530885,29,8,m
131.952838,60,1,8.6,7.2,8.4,8.530885,30,4,s
120.037965,85,1,7.5,6.88237,7.5,9,10,11,m
181.466141,89,1,8.3,6.88237,8.009683,9,22,20,s
1244.957689,89,1,6.8,6.88237,6.8,8.530885,35,0,s
16.508069,60,3,7.8,6.5,7.5,11,28,5,m
34.993875,83,1,6.7,6.4,6.7,8.530885,30,0,m
301.963591,85,1,9.1,7.2,8.3,8.530885,29,0,m
187.937462,85,1,7,6.88237,7,8.530885,33,7,m
276.106859,60,1,7.7,6.1,7.2,8.530885,20,10,l
24.135268,84,1,5.5,6.88237,5.5,7,26.742663,74,s
859.662506,81,1,7.6,7.1,7.6,6,73,0,s
2108.333342,60,1,9.1,7,8.8,8.530885,30,0,m
533.931727,85,1,7.8,6.8,7.7,8,24,31,s
245.645218,60,1,9.1,7,8.8,8.530885,30,0,m
36.116423,81,3,6.4,6.88237,6.8,8.530885,33,0,m
17066.14686,85,1,9.5,6.88237,8.5,12,33,22,s
278.934682,60,3,8,7.7,8,10,15,18,m
17474.4194,85,1,9.5,6.88237,8.5,12,33,17,m
410.58583,85,1,9.1,7.2,8.3,8.530885,29,12,m
261.128429,60,1,9.1,7,8.8,8.530885,30,9,l
1514.269519,85,1,8.8,7,8,8,35,15,s
97.122234,86,1,8.3,6.5,7.8,8.530885,10,0,l
10804.24513,80,1,8.8,7.2,8.5,9,22,0,s
197.039005,85,1,8.2,6.88237,8.009683,6,7,85,s
207.89511,82,1,7,6.88237,8.009683,4,10,7,s
4.076841,88,1,8.30368,6.88237,8.009683,8.530885,26.742663,85,m
30.30488,50,1,7,6.88237,8.009683,8,21,7,s
3964.974883,89,1,8.3,6.88237,8.009683,9,22,15,s
100.073709,85,1,8.3,6.88237,8.1,8.530885,15,8,m
18316.24773,84,1,8.8,7.2,8.5,9,22,0,s
53.053014,85,3,7.5,6.9,7.2,9,10,9,l
110.177442,85,1,7.5,6.88237,8.009683,5,40,0,s
208.112239,85,1,7.7,6.88237,7.7,8.530885,26.742663,0,m
8204.020776,81,1,7.7,6.5,7.5,8.530885,14,1,s
281.836956,85,1,5.6,6.88237,8.009683,8.530885,11,0,s
63.349178,85,1,7.9,6.88237,7.9,8.530885,35,11,s
5302.130918,80,1,7.8,6.1,7.8,10,33,11,s
117.093941,85,1,9.1,7.2,8.3,8.530885,29,8,m
131.665366,89,1,8.8,7.2,8.5,9,22,8,l
4527.732087,60,1,9.1,7,8.8,8.530885,30,11,m
94.554221,85,1,9.1,7.2,8.3,8.530885,29,9,l
82.253954,85,1,9.1,7.2,8.3,8.530885,29,15,l
8546.197731,81,1,9.1,7.2,8.3,8.530885,29,0,s
2638.803099,60,1,7.7,6.1,7.2,8.530885,20,0,s
258.380672,85,1,9.1,7.2,8.3,8.530885,29,10,s
46.970798,85,1,7.6,6.88237,7.3,8.530885,74,7,s
311.623537,85,1,7.3,6.88237,7.3,8.530885,40,19,s
196.181568,85,1,8.2,6.88237,8.009683,6,7,109,m
79.20011,60,1,7.8,6.5,7.3,8.530885,20,6,s
126.129411,85,1,9.1,7.2,8.3,8.530885,29,9,m
121.733581,85,1,9.1,7.2,8.3,8.530885,29,10,l
1673.055326,60,1,9.1,7,8.8,8.530885,30,11,l
121.653269,85,1,9.1,7.2,8.3,8.530885,29,8,m
140.523944,89,1,8.3,6.88237,8.009683,9,22,10,l
308.407749,85,1,6.9,6.88237,8.009683,8,9,7,s
15983.02015,88,1,9.1,7,8.8,8.530885,30,0,s
10881.8068,80,1,8.3,6.88237,8.009683,9,22,0,s
34.48568,89,1,8.5,6.88237,8.5,11,26.742663,62,m
139.430465,85,1,9.1,7.2,8.3,8.530885,29,9,l
100.517462,85,1,9.1,7.2,8.3,8.530885,29,7,m
280.00268,85,1,9.1,7.2,8.3,8.530885,29,12,l
25.419009,89,1,8.3,6.88237,8.009683,9,22,18,l
2399.248849,88,1,7.9,6.88237,8.009683,4,14,0,s
2725.499726,80,1,8.30368,6.88237,8.009683,8.530885,26.742663,57,m
7911.823955,81,1,8.8,7,8,8,35,23,s
4914.986652,85,3,8.2,6.5,8.1,9,33,6,s
726.553808,85,1,8.3,6.88237,8.009683,10,40,0,s
3001.15666,85,1,7.6,6.88237,8.009683,7,32,67,s
5944.603986,80,1,9.1,7.2,8.3,8.530885,29,19,m
10024.92286,88,1,9,6.88237,8.5,7,22,6,s
392.129828,85,1,8.4,6.88237,8.5,8.530885,15,0,s
17025.4693,85,1,9.5,6.88237,8.5,12,33,11,m
1624.629601,60,1,9.1,7,8.8,8.530885,30,14,l
17013.2046,85,1,9.5,6.88237,8.5,12,33,0,m
334.599428,84,1,6.8,6.4,6.4,8.530885,20,0,s
3697.239537,80,1,8.6,6.88237,9.1,8.530885,33,51,m
5.669845,85,3,7.5,6.9,7.2,9,10,5,s
183.123092,89,1,8.3,6.88237,8.009683,9,22,15,m
68.27061,60,3,7.8,6.5,7.5,11,28,0,l
663.996096,85,1,7.8,6.8,7.7,8,24,56,s
11163.31,80,1,9.5,6.88237,8.5,12,33,17,m
3558.023717,88,3,8.6,6.88237,7.3,6,15,10,s
5066.723983,88,1,8.3,6.5,7.8,8.530885,10,20,s
744.155799,84,1,7.7,6.6,7.6,8,17,0,m
399.523361,60,3,7.7,6.88237,8.009683,4,15,0,s
15009.8591,71,1,9.1,7,8.8,8.530885,30,0,s
411.158759,85,1,7.2,6,7.2,8.530885,44,6,s
9576.289812,89,1,8.1,6.88237,8.009683,9,19,13,s
115.693274,85,1,9.1,7.2,8.3,8.530885,29,6,l
181.950452,89,1,8.3,6.88237,8.009683,9,22,6,m
4769.466477,88,1,8.8,7,8,8,35,0,s
587.449539,85,0,8.30368,4.9,8.009683,8.530885,10,292,s
127.115978,50,3,7.7,6.88237,7.8,9,20,6,m
321.532696,85,1,8.3,6.9,8.1,8.530885,27,0,m
4562.311689,80,3,9.2,6.88237,8.4,10,25,0,m
4117.213661,80,1,7.7,6.5,7.5,8.530885,14,0,s
22.033174,85,3,6.9,6.88237,6.9,8.530885,26.742663,8,m
234.741104,85,1,9.1,7.2,8.3,8.530885,29,11,l
5905.019924,85,1,7.9,6.4,7.4,8,24,0,s
135.060361,85,1,9.1,7.2,8.3,8.530885,29,8,m
181.534139,89,1,8.3,6.88237,8.009683,9,22,14,s
377.703501,85,1,5.7,6.88237,8.009683,8.530885,10,7,s
5857.372366,60,1,9.1,7,8.8,8.530885,30,0,s
398.783338,86,1,7.7,6.6,7.6,8,17,0,m
268.339135,87,3,9.2,6.88237,8.4,10,25,0,s
28.975159,83,1,7.8,6.88237,8.009683,8,23,11,l
239.51788,60,1,9.1,7,8.8,8.530885,30,12,m
701.375062,74,1,7.3,6.88237,8.009683,10,33,0,m
181.840317,89,1,8.3,6.88237,8.009683,9,22,21,m
9994.675867,81,1,9.1,7.2,8.3,8.530885,29,11,s
4121.196142,80,1,7.7,6.5,7.5,8.530885,14,0,s
130.297577,60,1,7.8,6.5,7.3,8.530885,20,17,m
8.431628,83,3,7.5,6.88237,8.009683,9,20,10,s
254.781896,60,1,7.8,5.7,7.2,8.530885,18,86,l
1221.484041,85,1,9.1,7.2,8.3,8.530885,29,7,m
2725.499726,85,1,8.1,6.88237,8.3,9,45,647,s
50.60137,82,1,7.2,6.3,7.5,8.530885,21,63,m
3956.085177,80,1,8.6,6.88237,9.1,8.530885,33,0,m
41.707581,89,1,8.8,7.2,8.5,9,22,12,l
98.940296,85,1,9.1,7.2,8.3,8.530885,29,10,s
161.509281,85,1,8.3,6.88237,8.1,8.530885,15,22,m
213.322333,85,1,6.7,6.88237,6.7,8.530885,20,0,s
3538.094551,60,1,7.8,6.5,7.3,8.530885,20,0,s
5960.890248,80,1,7.9,6.3,7.9,6,48,0,s
181.716696,89,1,8.3,6.88237,8.009683,9,22,15,m
1024.468349,81,1,7.6,7,7.8,8.530885,17,5,s
276.664946,85,1,9.1,7.2,8.3,8.530885,29,6,l
4049.350726,85,1,7.6,6.5,7.8,8.530885,13,10,s
59.847553,89,1,8,6.7,7.9,8,39,10,m
247.52374,60,1,7.8,5.7,7.2,8.530885,18,7,s
80.331626,82,1,8.1,6.8,7.9,8.530885,24,10,m
15649.48698,86,1,9.5,6.88237,8.5,12,33,173,m
9169.295193,81,1,9.1,7,8.8,8.530885,30,0,s
11158.90695,80,1,9.5,6.88237,8.5,12,33,25,m
117.701341,85,1,7,6.88237,7,8.530885,34,76,s
182.381765,89,1,8.3,6.88237,8.009683,9,22,5,m
7842.75571,88,3,9.2,6.88237,8.4,10,25,16,s
468.945114,85,1,9.1,7.2,8.3,8.530885,29,7,s
2725.499726,60,3,7.8,6.5,7.5,11,28,647,m
3667.324623,85,1,7.6,6.5,7.8,8.530885,13,8,s
282.579403,85,1,7.8,6.8,7.7,8,24,0,s
10338.72935,81,3,8.6,6.88237,7.3,6,15,0,s
101.390396,85,1,9.1,7.2,8.3,8.530885,29,10,l
180.317894,81,1,8.1,7.1,8.1,8.530885,18,2,m
9304.249141,88,1,8.1,6.88237,8,8.530885,30,5,s
1021.562391,60,1,9.1,7,8.8,8.530885,30,11,m
110.435607,85,1,8.3,6.9,8.1,8.530885,27,4,m
9165.83032,88,1,8.2,6.88237,8.009683,8,25,0,s
201.275704,81,1,8.1,7.1,8.1,8.530885,18,18,l
455.038717,60,3,7.7,6.88237,8.009683,4,15,0,s
192.035185,81,1,8.1,7.1,8.1,8.530885,18,14,m
218.419665,60,1,7.8,7,7.9,8.530885,31,6,s
95.508275,89,1,8,6.7,7.9,8,39,13,s
14943.66239,85,1,8.1,6.88237,7.5,9,38,0,s
74.251369,60,1,7.8,6.5,7.3,8.530885,20,13,l
608.241317,89,1,8.8,7.2,8.5,9,22,20,s
1733.231719,60,1,9.1,7,8.8,8.530885,30,7,m
17811.11213,85,1,8,6.6,7.3,7,46,10,s
141.402794,89,1,8.3,6.88237,8.009683,9,22,13,m
4120.541234,80,1,7.7,6.5,7.5,8.530885,14,0,s
12227.39273,88,1,8.1,6.88237,8.3,9,45,63,s
1500.336668,73,1,8.5,6.88237,8.009683,11,26.742663,16,m
9579.830196,81,1,9.1,7.2,8.3,8.530885,29,4,m
536.155096,86,1,8.8,7,8,8,35,23.263212,s
17102.37952,85,1,9.5,6.88237,8.5,12,33,45,m
191.23454,85,1,9.1,7.2,8.3,8.530885,29,14,l
4975.570666,80,1,9,6.88237,8.5,7,22,0,m
2207.883988,81,1,7.9,6.3,7.9,6,48,0,s
10826.17714,81,1,9.5,6.88237,8.5,12,33,0,s
10.777211,84,1,8.30368,6.88237,8.009683,9,26.742663,20,s
4781.385156,60,1,9.1,7,8.8,8.530885,30,6,m
189.508487,85,1,8.2,6.88237,7.8,9,30,0,s
2469.533384,85,1,8.8,7,8,8,35,0,s
181.40989,89,1,8.3,6.88237,8.009683,9,22,16,s
2983.135849,85,1,7.4,6.3,7.4,6,73,0,s
1969.844089,60,1,9.1,7,8.8,8.530885,30,5,l
167.829723,89,1,8.8,7.2,8.5,9,22,0,l
252.023084,89,1,8.8,7.2,8.5,9,22,10,l
404.417875,85,1,9.1,7.2,8.3,8.530885,29,3,s
175.749466,85,1,9.1,7.2,8.3,8.530885,29,6,l
134.54303,85,1,9.1,7.2,8.3,8.530885,29,5,m
10873.84618,81,1,9.5,6.88237,8.5,12,33,0,s
6647.269771,88,1,8.5,7.7,8.1,9,13,0,s
4451.200539,83,1,9.1,7.2,8.3,8.530885,29,0,s
15257.3984,85,1,8.4,6.7,8.2,8,33,0,s
10029.24018,81,1,9,6.88237,8.5,7,22,17,s
121.222692,85,1,9.1,7.2,8.3,8.530885,29,10,l
11163.08137,80,1,9.5,6.88237,8.5,12,33,44,m
68.023747,83,3,7.5,6.88237,8.009683,9,20,18,s
17945.99336,85,1,8,6.7,7.8,8,40,10,s
133.019605,89,1,8.8,7.2,8.5,9,22,7,l
115.920021,85,1,9.1,7.2,8.3,8.530885,29,5,m
5.894233,85,3,7.5,6.9,7.2,9,10,5,m
593.965592,85,1,9.1,7.2,8.3,8.530885,29,10,m
1331.210398,85,1,7.1,6.4,6.9,8.530885,28,0,s
96.730619,85,1,7.5,6.88237,8.009683,5,40,9,s
254.635048,85,1,8.2,6.88237,8.009683,6,7,0,s
181.434641,89,1,8.3,6.88237,8.009683,9,22,13,s
84.8549,85,1,9.1,7.2,8.3,8.530885,29,4,m
249.391256,60,1,8.5,6.88237,8.5,8.530885,600,0,m
90.298286,85,1,8.3,6.9,8.1,8.530885,27,5,m
2725.499726,88,1,7.6,5.4,7.7,8.530885,30,647,l
32.407976,84,1,6.6,6.2,6.6,7,26,11,s
3617.444449,80,3,8.6,6.88237,7.3,6,15,0,l
3643.449317,80,3,8.6,6.88237,7.3,6,15,0,l
7725.924326,88,1,8.2,6.88237,8.009683,6,7,0,s
280.083095,85,1,8.4,6.88237,8.5,8.530885,15,0,m
3032.013099,60,1,8.4,6.9,8.5,8.530885,34,0,s
6.621782,85,3,7.5,6.9,7.2,9,10,15,m
13155.498,89,1,9.1,7.2,8.3,8.530885,29,1,m
457.55904,87,3,9.2,6.88237,8.4,10,25,0,l
70.706318,84,1,8,6.4,7.9,6,33,6,m
3585.281972,80,3,8.6,6.88237,7.3,6,15,22,s
130.144126,85,1,9.1,7.2,8.3,8.530885,29,9,m
177.958504,85,1,8.2,6.88237,8.009683,6,7,0,s
1733.36776,60,1,9.1,7,8.8,8.530885,30,8,m
9678.899893,89,1,8.1,6.88237,8.009683,9,19,8,s
4760.636256,85,1,7.9,6.88237,7.9,9,47,67,s
306.174843,85,1,5.5,6.1,5.5,8.530885,29,7,s
797.499123,85,1,8.2,6.88237,7.8,9,30,69,s
74.292472,85,1,7.5,6.88237,8.009683,8.530885,33,4,s
1738.535395,60,1,9.1,7,8.8,8.530885,30,8,l
197.954113,60,3,8,7.7,8,10,15,7,l
10646.97649,80,1,8.2,6.88237,7.3,8.530885,35,11,s
74.206937,82,1,7.6,6.5,7.8,8.530885,13,6,s
82.939618,85,1,9.1,7.2,8.3,8.530885,29,19,s
2110.51043,60,1,9.1,7,8.8,8.530885,30,24,m
25.206706,50,3,7,6.88237,7.2,11,40,0,l
7676.720837,87,1,7.6,6.4,7.3,8.530885,45,0,s
2101.253805,85,1,9,6.88237,8.5,7,22,9,s
3799.785371,88,3,9.2,6.88237,8.4,10,25,0,s
2107.973001,60,1,9.1,7,8.8,8.530885,30,4,m
138.98949,85,1,8.3,6.9,8.1,8.530885,27,3,m
998.69378,87,1,7.6,6.88237,8.009683,8,33,0,s
102.788826,85,1,9.1,7.2,8.3,8.530885,29,7,s
47.605537,60,1,7.8,6.5,7.3,8.530885,20,13,m
140.599216,85,3,7.5,6.9,7.2,9,10,0,s
3754.96,80,3,8.6,6.88237,7.3,6,15,0,l
286.831457,85,1,8.2,6.88237,8.009683,6,7,0,m
421.781927,85,1,7.8,6.8,7.7,8,24,47,s
2686.302525,80,1,7.3,6.9,8.009683,8.530885,52,0,s
490.436926,85,1,7.9,6.88237,7.9,9,40,0,s
104.182768,85,1,7.5,6.88237,8.009683,5,40,46,s
5271.234611,80,1,9,6.88237,8.5,7,22,217,s
46.601897,50,1,7,6.88237,8.009683,8,21,7,m
3978.34231,85,3,8.2,6.5,8.1,9,33,0,s
213.772278,82,1,7,6.88237,8.009683,7,24,0,s
33.61417,50,1,7.6,6.3,7.8,10,13,0,m
1641.466627,60,1,9.1,7,8.8,8.530885,30,0,l
1298.374409,82,1,7.8,6.88237,8.009683,8,40,7,s
199.967762,85,1,7.8,6.8,7.7,8,24,1,m
225.503661,74,1,6.4,6.88237,8.009683,8,10,0,s
17480.64368,85,1,9.5,6.88237,8.5,12,33,0,m
16909.13807,89,1,9.1,7.2,8.3,8.530885,29,0,m
6010.391545,85,1,7.9,5.8,7.9,8.530885,33,0,s
291.105821,85,1,8.1,6.88237,8.3,9,45,0,m
91.124258,85,1,9.1,7.2,8.3,8.530885,29,8,l
10868.49395,81,1,9.5,6.88237,8.5,12,33,6,s
8124.036394,88,1,8.3,6.88237,8.3,11,40,0,m
10078.55973,88,1,9.5,6.88237,8.5,12,33,0,s
46.581956,60,1,7.8,6.5,7.3,8.530885,20,5,l
131.294294,85,1,8.3,6.88237,8.1,8.530885,15,8,m
30.088236,83,1,7.6,6.7,7.5,8.530885,26,201,l
431.906871,85,1,9.1,7.2,8.3,8.530885,29,8,l
702.421907,74,1,7.3,6.88237,8.009683,10,33,169,m
58.929531,83,3,7.5,6.88237,8.009683,9,20,14,m
11320.9681,82,1,8.2,6.88237,8.009683,9,47,0,s
40.732538,88,3,7.5,6.88237,7.5,8,26.742663,0,m
9553.500149,89,1,8.1,6.88237,8.009683,9,19,0,s
3691.535608,80,3,8.6,6.88237,7.3,6,15,0,m
182.308379,89,1,8.3,6.88237,8.009683,9,22,8,s
1770.59559,60,1,9.1,7,8.8,8.530885,30,7,l
115.486753,85,1,8.3,6.9,8.1,8.530885,27,198,m
102.106126,85,1,9.1,7.2,8.3,8.530885,29,7,l
23.495294,74,3,7,6.8,7.3,8.530885,13,5,m
181.372951,89,1,8.3,6.88237,8.009683,9,22,23,m
256.685806,85,1,9.1,7.2,8.3,8.530885,29,9,l
14720.95704,85,1,8.8,8.2,8.6,9,20,0,s
169.101693,81,1,8.1,7.1,8.1,8.530885,18,10,l
428.045223,85,1,9.1,7.2,8.3,8.530885,29,8,m
4500.252333,80,3,9.2,6.88237,8.4,10,25,11,m
246.310633,85,1,9.1,7.2,8.3,8.530885,29,8,l
11524.73035,60,1,8.1,6.88237,8.009683,9,19,0,s
708.115618,85,1,8.3,6.88237,8.009683,10,40,0,s
416.025235,89,1,8,6.6,7.3,7,46,0,s
6231.332303,80,1,9.1,7.2,8.3,8.530885,29,4,m
10694.3199,80,1,8,6.6,7.3,7,46,0,s
93.46467,85,1,8.2,6.88237,8.2,8.530885,26.742663,17,l
248.753981,81,1,8.1,7.7,8.2,8.530885,25,6,m
139.884009,85,1,8.3,6.9,8.1,8.530885,27,3,s
292.72849,85,1,9.1,7.2,8.3,8.530885,29,0,s
5558.726581,80,1,8.5,7.7,8.1,9,13,0,s
127.88749,85,1,9.1,7.2,8.3,8.530885,29,8,m
278.112789,74,3,7,6.8,7.3,8.530885,13,20,s
17005.20913,85,1,9.5,6.88237,8.5,12,33,7,m
140.791334,89,1,8.8,7.2,8.5,9,22,9,l
84.174757,85,1,9.1,7.2,8.3,8.530885,29,5,l
3512.355626,80,3,8.6,6.88237,7.3,6,15,13,m
2910.531828,87,1,8.8,7,8,8,35,9,s
5929.60639,80,1,9.1,7.2,8.3,8.530885,29,10,m
188.899641,85,1,7.6,6.88237,7.6,8.530885,30,80,s
3601.319361,80,3,8.6,6.88237,7.3,6,15,16,l
238.204095,85,1,6.7,6.88237,6.7,8.530885,50,69,s
5800.164305,80,1,9.1,7.2,8.3,8.530885,29,5,m
7420.913212,85,1,8.1,7.1,8.1,8.530885,18,0,s
7368.503952,87,1,7.6,6.4,7.3,8.530885,45,8,s
98.156494,85,3,7.5,6.9,7.2,9,10,0,m
99.960629,85,1,9.1,7.2,8.3,8.530885,29,11,l
124.869991,85,1,9.1,7.2,8.3,8.530885,29,24,l
8586.214927,88,1,8.1,6.88237,8,8.530885,30,0,s
268.98612,81,1,7.7,7,7.7,6,25,0,s
642.267098,60,1,9.1,7,8.8,8.530885,30,23,l
27.925987,83,1,7.9,6.3,7.6,6,24,7,m
664.125923,77,0,8.30368,5,8.009683,8.530885,10,14,m
18390.33496,84,1,8.8,7.2,8.5,9,22,0,s
120.91274,85,1,9.1,7.2,8.3,8.530885,29,7,l
16978.5461,85,1,9.5,6.88237,8.5,12,33,35,m
181.308547,89,1,8.3,6.88237,8.009683,9,22,18,s
17628.28205,85,1,8.8,7.2,8.5,9,22,0,s
96.691628,85,1,9.1,7.2,8.3,8.530885,29,4,l
6222.219098,81,1,8,6.7,7.8,8,40,0,s
1710.217361,81,1,7.2,7.2,7.2,4,65,198,s
92.774113,89,1,8.3,6.88237,8.009683,9,22,12,l
184.155323,81,1,8.1,7.1,8.1,8.530885,18,23,l
3009.498085,87,1,8.7,7.7,7.8,6,30,5,s
2516.471651,60,1,9.1,7,8.8,8.530885,30,3,s
10671.31232,81,1,9.5,6.88237,8.5,12,33,0,m
2011.009345,85,1,9,6.88237,8.5,7,22,0,m
189.318662,85,1,9.1,7.2,8.3,8.530885,29,7,l
15300.5974,85,1,8.5,6.88237,8.5,10,30,10,s
3694.852114,80,1,8.6,6.88237,9.1,8.530885,33,8,s
13134.80712,89,1,9.1,7.2,8.3,8.530885,29,12,s
1516.044681,81,1,7.4,6.88237,8.009683,8.530885,10,39,s
283.547871,85,1,9.1,7.2,8.3,8.530885,29,13,l
307.29253,81,1,7.6,6.8,7.6,6,33,0,s
6106.181629,80,1,8.3,6.9,8.1,8.530885,27,5,s
98.264139,85,1,9.1,7.2,8.3,8.530885,29,6,s
7157.31912,87,1,7.9,6.4,7.4,8,24,8,s
2725.499726,85,1,7.9,6.88237,7.9,8.530885,35,647,s
16768.063,85,1,9.5,6.88237,8.5,12,33,0,m
124.34128,85,1,7.3,6.4,7.3,8.530885,32,10,s
144.202398,85,1,6.9,6.4,6.7,10,44,0,s
548.066008,85,1,9.1,7.2,8.3,8.530885,29,11,m
609.333473,60,1,9.1,7,8.8,8.530885,30,11,m
7939.229473,81,1,9,6.88237,8.5,7,22,0,s
3675.883556,80,3,8.6,6.88237,7.3,6,15,16,l
212.162609,85,1,9.1,7.2,8.3,8.530885,29,10,l
10984.69499,80,1,9.5,6.88237,8.5,12,33,0,s
17518.8467,85,1,8,6.6,7.3,7,46,0,s
64.958469,82,3,7,5.8,7.1,8.530885,25,16,m
21.11828,88,1,8,6.6,7.4,8.530885,33,112,l
3925.723745,80,1,8,6.4,7.7,6,19,11,s
4567.109879,60,1,9.1,7,8.8,8.530885,30,0,m
993.209817,85,1,6.8,6.9,6.8,8.530885,15,0,s
10993.5416,80,1,8.4,6.7,8.2,8,33,0,s
2996.267634,81,1,7.9,6.4,7.4,8,24,2,s
2335.458491,85,1,7.3,6.88237,7.3,8.530885,36,72,s
23.415024,50,1,7.6,6.3,7.8,10,13,0,m
203.141169,85,1,9.1,7.2,8.3,8.530885,29,21,l
261.057207,60,1,9.1,7,8.8,8.530885,30,5,m
2287.905336,87,1,7.7,6.5,7.7,8,48,0,s
98.410509,85,3,7.5,6.9,7.2,9,10,8,m
121.299581,88,1,7.3,6.88237,8.009683,8.530885,28,5,m
8497.657677,88,1,9.1,7.2,8.3,8.530885,29,0,s
153.648948,85,1,7,6.88237,8.009683,8.530885,40,0,s
260.370954,60,1,9.1,7,8.8,8.530885,30,7,l
20.776516,85,1,7.5,6.88237,8.009683,5,40,96,m
135.316169,85,1,7.8,6.8,7.7,8,24,0,m
893.135145,85,1,7.4,6.6,7.4,10,66,0,s
221.501691,85,1,8.3,6.88237,8.1,8.530885,15,0,m
2505.935763,60,1,9.1,7,8.8,8.530885,30,13,m
6036.134935,60,1,9.1,7,8.8,8.530885,30,10,m
6426.188163,85,1,7.5,6.4,7.3,8.530885,33,7,s
853.215846,85,1,8.5,7.7,8.1,9,13,0,s
187.780815,81,1,8.1,7.1,8.1,8.530885,18,30,l
264.171522,60,1,9.1,7,8.8,8.530885,30,4,l
27.451525,50,1,7,6.88237,8.009683,8,21,7,m
192.160489,85,1,8.2,6.88237,7.8,9,30,0,s
299.973502,85,1,8.2,6.88237,8.009683,6,7,3,m
13.072126,50,3,5.9,6.88237,5.9,8,6,39,m
92.646987,85,1,9.1,7.2,8.3,8.530885,29,5,l
3093.569863,88,3,9.2,6.88237,8.4,10,25,5,s
100.367957,85,1,9.1,7.2,8.3,8.530885,29,6,m
188.775991,81,1,8.1,7.1,8.1,8.530885,18,9,m
174.130907,60,1,7.8,6.5,7.3,8.530885,20,0,m
45.055017,82,3,7,5.8,7.1,8.530885,25,8,m
132.819068,89,1,8.8,7.2,8.5,9,22,13,l
15842.58509,85,1,7.9,6.88237,7.8,10,43,0,s
3156.325576,85,1,7.6,6.88237,8.009683,7,32,0,s
2040.845936,60,1,9.1,7,8.8,8.530885,30,0,m
497.874576,85,1,6.9,6.7,6.9,8.530885,10,0,s
3563.384721,80,3,8.6,6.88237,7.3,6,15,0,l
39.545232,89,1,8.3,6.88237,8.009683,9,22,16,l
280.57494,85,1,9.1,7.2,8.3,8.530885,29,0,l
229.731926,85,1,8.4,6.88237,8.5,8.530885,15,0,l
192.518638,85,1,7.8,6.8,7.7,8,24,0,m
264.863702,85,1,7.5,6.88237,8.009683,5,40,1,s
10352.00375,81,1,8,6.7,7.9,8,39,2,s
178.578687,81,1,8.1,7.1,8.1,8.530885,18,8,m
17438.68482,85,1,9.5,6.88237,8.5,12,33,92,s
7448.148935,81,3,8.6,6.88237,7.3,6,15,134,l
209.279767,81,1,8.1,7.1,8.1,8.530885,18,13,m
8777.437849,81,1,9.5,6.88237,8.5,12,33,13,l
119.718274,50,1,6.3,6.88237,8.009683,6,12,0,s
138.997522,85,1,7.8,6.8,7.7,8,24,0,s
8867.608235,88,1,8.3,6.88237,8.009683,9,22,0,s
2376.150514,88,1,7.6,6.88237,8.009683,8,33,12,s
176.992701,85,1,8.1,6.88237,8.1,8.530885,26.742663,0,l
208.883138,85,1,9.1,7.2,8.3,8.530885,29,28,l
233.597092,89,1,8.5,6.88237,8.3,11,70,0,l
88.540034,85,1,9.1,7.2,8.3,8.530885,29,6,m
135.434244,85,1,9.1,7.2,8.3,8.530885,29,7,l
161.841891,85,1,7.1,6.88237,7.1,8.530885,0,0,s
6839.021306,81,3,9.2,6.88237,8.4,10,25,0,s
154.084276,85,1,9.1,7.2,8.3,8.530885,29,23,l
116.88148,85,1,9.1,7.2,8.3,8.530885,29,14,l
418.55884,85,1,7,5.8,7,8.530885,15,4,s
253.633493,85,1,9.1,7.2,8.3,8.530885,29,6,s
134.971566,85,1,9.1,7.2,8.3,8.530885,29,8,m
260.550509,60,1,9.1,7,8.8,8.530885,30,13,m
205.963728,89,1,8.8,7.2,8.5,9,22,19,l
358.908492,50,1,7.8,6.88237,8.009683,9,17,7,s
14.68658,85,1,6.9,6.3,6.8,11,17,12,s
622.931089,85,1,9.1,7.2,8.3,8.530885,29,0,s
416.726949,85,1,8.4,6.88237,8.4,8.530885,26.742663,0,m
74.264848,60,1,7.8,6.5,7.3,8.530885,20,8,l
403.556021,85,1,8.1,6.88237,8.3,9,45,28,s
2028.083962,87,1,7,6.88237,8.009683,8.530885,29,0,s
131.438374,85,1,9.1,7.2,8.3,8.530885,29,7,m
21.497092,88,1,7.7,6.5,7.5,8.530885,14,17,l
747.403476,81,1,8,7.2,7.8,7,55,0,s
7391.229817,81,1,8.8,7.2,8.5,9,22,31,s
121.836088,60,1,8.4,6.9,8.5,8.530885,34,6,m
389.301056,85,1,7.8,6.3,7.8,8,34,24,s
2033.893912,60,1,9.1,7,8.8,8.530885,30,11,l
2579.225157,60,1,9.1,7,8.8,8.530885,30,3,m
72.513582,60,1,7.8,6.5,7.3,8.530885,20,17,l
670.672945,87,1,8.6,6.88237,9.1,8.530885,33,0,s
278.100107,85,1,8.4,6.88237,8.5,8.530885,15,28,m
7739.531744,88,1,8.4,6.7,8.2,8,33,0,s
39.105395,85,1,7.5,6.88237,8.009683,5,40,66,l
70.826445,82,1,7.6,6.5,7.8,8.530885,13,15,m
2725.499726,60,1,9.1,7,8.8,8.530885,30,647,l
282.108121,60,1,7.7,6.1,7.2,8.530885,20,11,s
6461.142685,81,1,8.3,6.5,7.8,8.530885,10,0,s
2522.203641,60,1,9.1,7,8.8,8.530885,30,9,m
134.629102,85,1,7,6.88237,7,8.530885,34,0,s
201.985276,81,1,8.1,7.1,8.1,8.530885,18,14,m
59.139547,89,1,8.2,6.88237,8.009683,8,25,21,m
322.376144,85,1,9.1,7.2,8.3,8.530885,29,0,m
141.352744,89,1,8.3,6.88237,8.009683,9,22,17,l
120.020807,85,1,9.1,7.2,8.3,8.530885,29,12,m
809.876091,85,1,8.3,6.5,7.8,8.530885,10,6,s
181.423332,89,1,8.3,6.88237,8.009683,9,22,14,s
39.369909,85,1,7.9,6.88237,7.9,8.530885,35,29,l
201.985276,81,1,8.1,7.1,8.1,8.530885,18,14,m
54.89983,85,1,7.2,6.88237,7.2,8.530885,26.742663,69,s
261.037161,60,1,9.1,7,8.8,8.530885,30,7,l
10651.72636,80,1,9.5,6.88237,8.5,12,33,107,m
7382.332755,81,1,8.8,7.2,8.5,9,22,17,m
145.568496,82,1,7.6,6.5,7.8,8.530885,13,7,s
13155.66235,89,1,9.1,7.2,8.3,8.530885,29,44,m
240.358965,85,1,9.1,7.2,8.3,8.530885,29,11,l
134.282316,85,1,9.1,7.2,8.3,8.530885,29,11,l
35.80848,80,1,6.9,6.88237,8.009683,8.530885,60,0,s
11835.49839,88,1,9.1,7.2,8.3,8.530885,29,0,s
9083.085459,88,1,8.4,6.7,8.2,8,33,0,s
129.350545,85,1,9.1,7.2,8.3,8.530885,29,7,l
126.161437,85,1,9.1,7.2,8.3,8.530885,29,7,m
50.778747,60,1,7.8,6.5,7.3,8.530885,20,10,l
121.790792,85,1,9.1,7.2,8.3,8.530885,29,10,l
222.812132,89,1,8.3,6.88237,8.009683,9,22,0,s
146.554127,85,1,9.1,7.2,8.3,8.530885,29,9,l
48.94346,60,1,7.8,6.5,7.3,8.530885,20,5,l
90.123197,85,1,8.3,6.9,8.1,8.530885,27,0,m
98.55732,85,1,9.1,7.2,8.3,8.530885,29,6,s
720.703905,84,3,7.5,6.9,7.2,9,10,4,s
29.748844,82,1,7.1,6.4,7.1,8.530885,25,12,s
165.976247,83,1,8.6,6.88237,8.2,6,25,24,s
25.047227,85,1,7.9,6.88237,7.9,8.530885,35,17,s
777.918794,85,1,9.1,7.2,8.3,8.530885,29,113,s
3961.305896,88,3,7.7,6,7.2,9,2,0,s
980.231692,89,1,8.5,6.88237,8.5,11,25,0,m
46.32405,85,1,7.5,6.88237,8.009683,5,40,160,s
174.311115,89,1,7.5,5.8,6.6,4,10,7,m
96.114989,50,1,6.5,6.88237,6.6,9,26.742663,7,s
170.529919,85,1,8.2,6.88237,8.009683,6,7,0,m
181.647186,89,1,8.3,6.88237,8.009683,9,22,13,m
2251.698624,87,1,8.3,6.5,7.8,8.530885,10,8,s
1799.175382,60,1,9.1,7,8.8,8.530885,30,9,m
69.51535,83,3,7.5,6.88237,8.009683,9,20,11,m
685.097039,85,1,6.9,6.6,6.9,8.530885,48,95,s
26.735465,50,3,7.7,6.88237,7.8,9,20,8,s
398.422291,85,1,9.1,7.2,8.3,8.530885,29,4,m
249.581259,85,1,8.4,6.88237,8.5,8.530885,15,16,m
540.558861,85,1,7.7,6.6,7.6,8,17,17,s
42.086563,85,1,7,6.88237,8.009683,8.530885,80,0,s
5391.11137,85,1,7.9,6.3,7.9,6,48,5,s
26.665981,85,1,7,6.3,6.7,6,46,91,s
87.058398,74,1,7.6,6.3,7.4,10,10,19,m
141.528359,85,1,7.7,6.6,7.6,8,17,19,s
125.186928,60,1,7.8,6.5,7.3,8.530885,20,7,m
16951.4867,85,1,9.5,6.88237,8.5,12,33,0,s
457.777687,85,1,7.1,6.88237,8.009683,8.530885,25,72,s
190.101622,81,1,8.1,7.1,8.1,8.530885,18,15,m
123.557928,85,1,9.1,7.2,8.3,8.530885,29,8,m
808.158979,89,1,9.5,6.88237,8.5,12,33,6,m
181.582993,89,1,8.3,6.88237,8.009683,9,22,11,m
109.145728,89,1,8.4,6.7,8.2,8,33,8,m
72.261625,85,1,7.8,6.8,7.7,8,24,34,l
200.795938,88,1,7.6,5.4,7.7,8.530885,30,7,m
93.412024,85,1,9.1,7.2,8.3,8.530885,29,9,l
10532.88485,81,1,8.5,6.88237,8.5,11,25,10,m
3511.042081,60,1,9.1,7,8.8,8.530885,30,0,s
4530.906248,83,1,9.1,7.2,8.3,8.530885,29,13,s
5236.127088,80,1,9,6.88237,8.5,7,22,0,s
6306.154163,80,1,9.1,7.2,8.3,8.530885,29,7,m
6.424068,85,3,7.5,6.9,7.2,9,10,5,m
2251.50584,60,1,9.1,7,8.8,8.530885,30,4,l
96.585561,85,1,9.1,7.2,8.3,8.530885,29,0,l
261.065137,85,1,8.4,6.88237,8.5,8.530885,15,80,s
534.063845,85,1,6.6,5.8,6.4,8.530885,28,17,s
8931.396593,85,1,8.1,6.88237,8.009683,9,19,0,s
264.43437,85,1,7.4,6.88237,7.4,8.530885,26.742663,6,m
7929.452531,81,1,8.8,7,8,8,35,3,s
4044.780996,80,1,7.9,6.6,7.6,6,33,11,s
116.682249,85,1,9.1,7.2,8.3,8.530885,29,5,m
83.277423,85,1,9.1,7.2,8.3,8.530885,29,23,s
13.621718,85,1,7.9,6.88237,7.9,8.530885,35,36,m
189.077041,81,1,8.1,7.1,8.1,8.530885,18,12,l
133.9479,85,1,9.1,7.2,8.3,8.530885,29,11,l
228.710389,85,1,8.1,6.88237,8.1,8.530885,26.742663,0,l
3568.820865,80,3,8.6,6.88237,7.3,6,15,0,m
164.915062,83,1,7.3,6.88237,7.3,8.530885,26.742663,69,s
10027.51408,88,1,8.1,6.8,7.9,8.530885,24,0,s
14716.25874,88,1,9.1,7,8.8,8.530885,30,5,s
972.774138,86,1,9.1,7.2,8.3,8.530885,29,0,s
57.814253,83,3,7.5,6.88237,8.009683,9,20,17,m
153.887839,85,1,9.1,7.2,8.3,8.530885,29,22,l
7474.156722,87,1,8.1,7.1,8.1,8.530885,18,8,s
125.927246,85,1,8.1,6.88237,8.3,9,45,0,m
7123.773289,88,1,8.3,6.5,7.8,8.530885,10,0,s
34.345325,85,3,7.5,6.9,7.2,9,10,0,m
181.654567,89,1,8.3,6.88237,8.009683,9,22,12,m
114.388796,85,1,9.1,7.2,8.3,8.530885,29,9,l
3700.122252,85,1,7.6,6.88237,7.6,8.530885,25,72,s
2504.952085,60,1,9.1,7,8.8,8.530885,30,10,m
71.877688,85,1,8.3,6.9,8.1,8.530885,27,8,m
148.137125,85,1,8.2,6.88237,8.009683,6,7,0,l
198.434617,89,1,8.3,6.88237,8.009683,9,22,4,m
133.507177,85,1,9.1,7.2,8.3,8.530885,29,8,m
3569.396164,80,3,8.6,6.88237,7.3,6,15,0,l
2725.499726,85,1,6.4,6.88237,6.4,8.530885,26.742663,647,m
88.59384,85,1,9.1,7.2,8.3,8.530885,29,8,l
2025.021313,60,1,9.1,7,8.8,8.530885,30,9,l
18.328854,89,1,8.3,6.88237,8.009683,9,22,12,m
176.250403,85,1,7.3,6.88237,8.009683,9,63,26,s
11925.25538,89,1,8.8,7,8,8,35,23.263212,s
371.626219,85,1,6.9,6.88237,8.009683,8,9,5,s
70.581038,85,1,7.4,6.88237,7.4,8.530885,26.742663,58,l
17389.89418,85,1,8,6.7,7.8,8,40,8,s
261.631105,85,1,8.4,6.88237,8.5,8.530885,15,0,m
6774.91655,84,1,7.5,6.4,7.3,8.530885,33,0,s
16992.82418,85,1,9.5,6.88237,8.5,12,33,0,m
168.662685,85,1,8.2,6.88237,8.009683,6,7,97,m
10637.95484,80,1,9.5,6.88237,8.5,12,33,32,m
280.378111,87,1,7.9,6.88237,8.009683,4,14,0,s
43.597806,85,1,8.3,6.88237,8.1,8.530885,15,46,m
207.504181,88,1,7,6.88237,8.009683,8,10,23.263212,s
401.729478,85,1,9.1,7.2,8.3,8.530885,29,9,m
3254.15489,87,1,7.4,6.88237,7.4,8.530885,60,0,s
26.342713,84,1,7.3,6.4,7.5,8.530885,33,28,s
96.323905,85,1,9.1,7.2,8.3,8.530885,29,8,s
11435.50085,88,1,9.5,6.88237,8.5,12,33,0,s
604.456402,81,1,8.1,6.5,7.7,8.530885,10,4,s
16655.86865,85,1,8.4,6.7,8.2,8,33,95,s
110.811119,85,1,9.1,7.2,8.3,8.530885,29,14,l
465.826881,85,1,9.1,7.2,8.3,8.530885,29,8,m
4729.102019,60,1,9.1,7,8.8,8.530885,30,4,m
182.190426,89,1,8.3,6.88237,8.009683,9,22,12,s
101.078794,87,3,9.2,6.88237,8.4,10,25,0,l
128.857855,85,1,9.1,7.2,8.3,8.530885,29,9,s
55.476574,74,1,7.3,6.88237,8.009683,10,33,19,l
73.983365,60,1,7.8,6.5,7.3,8.530885,20,8,m
2579.20652,60,1,9.1,7,8.8,8.530885,30,3,m
101.494549,85,1,8.3,6.88237,8.1,8.530885,15,4,m
183.627367,89,1,8.3,6.88237,8.009683,9,22,0,s
293.159493,85,1,7.7,6.6,7.6,8,17,71,m
123.780056,85,1,9.1,7.2,8.3,8.530885,29,5,l
3557.487333,85,1,8,6.4,7.9,6,33,7,s
46.60262,87,3,7.8,6.88237,7.9,11,35,0,s
25.460897,84,1,7.1,6.1,7.1,8.530885,32,16,s
228.044675,81,1,8.1,7.1,8.1,8.530885,18,14,s
8785.372048,80,1,8.8,8.2,8.6,9,20,0,s
5362.529612,82,1,9.1,7.2,8.3,8.530885,29,23.263212,s
255.723877,85,1,9.1,7.2,8.3,8.530885,29,4,l
587.237984,88,1,6.1,5.6,5.8,8.530885,20,12,s
11565.2517,88,1,9.1,7.2,8.3,8.530885,29,23.263212,s
51.56406,85,1,7.1,6.88237,8.009683,8.530885,26.742663,0,s
17463.69491,85,1,9.5,6.88237,8.5,12,33,0,m
83.169206,85,1,9.1,7.2,8.3,8.530885,29,21,s
5306.002388,80,1,8.2,6.88237,8.3,8.530885,33,0,s
13212.68757,89,1,9.1,7.2,8.3,8.530885,29,5,m
6565.619607,85,3,7.7,6,7.2,9,2,7,s
259.614956,60,1,9.1,7,8.8,8.530885,30,9,l
199.986624,85,1,7.7,6.88237,7.7,8.530885,30,80,s
133.344287,85,1,9.1,7.2,8.3,8.530885,29,7,s
183.571469,89,1,8.3,6.88237,8.009683,9,22,0,s
151.144355,85,1,9.1,7.2,8.3,8.530885,29,11,l
685.281007,87,3,9.2,6.88237,8.4,10,25,61,m
78.407728,85,1,7.7,6.6,7.6,8,17,63,l
135.302584,85,1,9.1,7.2,8.3,8.530885,29,10,l
17016.14582,74,1,9.1,7,8.8,8.530885,30,21,s
1324.043182,88,1,7.9,6.88237,8.009683,4,14,23,s
91.37834,85,1,7.7,6.6,7.6,8,17,0,l
33.901876,82,3,7,5.8,7.1,8.530885,25,8,m
106.814852,85,1,9.1,7.2,8.3,8.530885,29,6,l
653.970423,85,1,7.7,6.5,7.7,8,48,69,s
182.635676,89,1,8.3,6.88237,8.009683,9,22,0,m
96.084434,60,1,7.8,6.5,7.3,8.530885,20,7,l
114.495901,89,1,8.4,6.7,8.2,8,33,11,l
55.152213,85,1,7.9,6.88237,7.9,8.530885,35,7,m
8636.346781,88,1,9.1,7.2,8.3,8.530885,29,0,s
3641.907265,82,1,8.1,6.88237,8.009683,9,19,0,s
11247.53799,82,1,8.8,7.2,8.5,9,22,0,s
154.06081,88,1,7.5,6.2,7.5,8.530885,43,0,s
93.45387,85,1,9.1,7.2,8.3,8.530885,29,20,l
9542.862189,88,1,8.8,7,8,8,35,0,s
1111.215719,86,1,8.5,7.7,8.1,9,13,0,s
100.61072,86,1,8.8,7,8,8,35,11,l
261.4721,60,1,9.1,7,8.8,8.530885,30,7,l
69.171879,88,1,8,6.6,7.4,8.530885,33,0,l
9094.307148,81,1,9.1,7.2,8.3,8.530885,29,0,s
13315.47489,89,1,9.1,7.2,8.3,8.530885,29,9,m
57.67654,85,1,8.3,6.9,8.1,8.530885,27,5,m
59.276493,82,1,7.6,6.5,7.8,8.530885,13,0,m
507.70074,87,3,9.2,6.88237,8.4,10,25,8,l
704.555744,85,1,8.1,6.88237,8.3,9,45,26,s
2865.739376,81,1,8.1,7.1,8.1,8.530885,18,0,s
2508.005668,89,1,8.4,6.7,8.2,8,33,8,s
198.452966,85,1,9.1,7.2,8.3,8.530885,29,11,s
13208.05221,89,1,9.1,7.2,8.3,8.530885,29,4,m
232.619096,89,1,7.7,6.88237,8.009683,8,22,8,s
71.851385,85,1,8.3,6.9,8.1,8.530885,27,6,m
50.182494,83,3,7.5,6.88237,8.009683,9,20,17,s
6502.542598,60,1,8.6,7.2,8.4,8.530885,30,0,s
97.964112,85,1,9.1,7.2,8.3,8.530885,29,9,m
491.378469,81,1,8.1,7.7,8.2,8.530885,25,0,m
135.190323,85,1,9.1,7.2,8.3,8.530885,29,10,l
4365.787596,85,1,8.6,6.88237,9.1,8.530885,33,0,s
1683.711101,85,1,7.6,6.3,7.4,8.530885,24,0,s
4584.442792,60,1,9.1,7,8.8,8.530885,30,5,m
13074.38887,87,1,8.8,7.2,8.5,9,22,15,s
8642.829102,88,1,9.1,7.2,8.3,8.530885,29,0,s
98.074393,50,3,7.7,6.88237,7.8,9,20,5,s
1353.891265,88,1,8.2,6.88237,8.009683,9,47,4,s
134.096185,85,1,9.1,7.2,8.3,8.530885,29,7,s
136.106371,85,1,9.1,7.2,8.3,8.530885,29,16,l
87.762027,85,1,7.7,6.6,7.6,8,17,70,l
2046.466581,88,1,7.9,6.88237,8.009683,4,14,4,s
54.889232,82,1,8.1,6.8,7.9,8.530885,24,10,m
16376.18444,85,1,8.4,6.7,8.2,8,33,8,s
276.220304,85,1,8.3,6.9,8.1,8.530885,27,20,s
119.944573,86,1,7,5.8,7,8.530885,15,49,m
168.772476,89,1,8.3,6.88237,8.009683,9,22,14,m
195.324481,81,1,8.1,7.1,8.1,8.530885,18,30,m
140.413641,85,1,7.5,6.88237,7.5,9,10,30,m
264.109252,85,1,8.4,6.88237,8.5,8.530885,15,95,l
4818.109472,60,1,9.1,7,8.8,8.530885,30,6,m
137.269491,82,1,7.3,6.8,7.4,8.530885,16,5,m
8415.501855,89,3,9.2,6.88237,8.4,10,25,0,s
13316.46115,89,1,9.1,7.2,8.3,8.530885,29,10,m
1289.857073,85,1,9.1,7.2,8.3,8.530885,29,9,s
195.441317,85,1,9.1,7.2,8.3,8.530885,29,6,l
68.288193,60,3,7.8,6.5,7.5,11,28,20,m
642.310402,60,1,9.1,7,8.8,8.530885,30,46,l
9119.962984,88,1,8.1,6.88237,8,8.530885,30,0,s
181.585103,89,1,8.3,6.88237,8.009683,9,22,14,m
96.826976,85,1,9.1,7.2,8.3,8.530885,29,12,l
400.736007,88,1,7.7,6.88237,7.7,8.530885,60,0,s
12361.50769,82,1,8.2,6.88237,8.009683,8,25,0,s
5720.273683,80,1,7.8,6.6,8.1,8.530885,29,0,s
68.411475,83,3,7.5,6.88237,8.009683,9,20,13,l
1309.850338,81,1,7.4,7,7.5,8.530885,14,9,s
5116.245417,80,1,7.8,6.3,7.6,7,33,0,s
214.792355,85,1,9.1,7.2,8.3,8.530885,29,5,l
3688.031607,85,1,7.6,6.88237,7.6,8.530885,25,0,s
132.779077,89,1,7.5,5.8,6.6,4,10,8,m
472.387443,85,3,6.8,6.3,6.9,8.530885,20,0,m
17611.96112,84,1,8.8,7.2,8.5,9,22,0,s
1435.530265,81,1,8.1,6.88237,8.009683,9,19,0,s
5196.558423,60,1,9.1,7,8.8,8.530885,30,7,s
181.971271,89,1,8.3,6.88237,8.009683,9,22,6,l
734.547042,85,1,7.4,6.3,7.2,10,56,0,s
49.350544,60,1,7.4,6.88237,7.3,9,35,8,s
5299.603864,88,1,9,6.88237,8.5,7,22,14,s
16988.02794,85,1,9.5,6.88237,8.5,12,33,0,m
152.247088,83,1,6.5,6.88237,6.5,8.530885,33,331,s
165.539013,85,1,7.6,6.88237,7.3,8.530885,74,143,s
100.069661,85,1,9.1,7.2,8.3,8.530885,29,7,l
1240.377656,85,1,9.1,7.2,8.3,8.530885,29,0,s
791.809418,60,1,9.1,7,8.8,8.530885,30,10,m
16962.2783,85,1,9.5,6.88237,8.5,12,33,0,m
107.312829,85,1,8.3,6.9,8.1,8.530885,27,6,m
17540.37208,85,1,8,6.7,7.8,8,40,9,s
7357.967748,81,1,8.8,7.2,8.5,9,22,3,m
2022.044781,60,1,9.1,7,8.8,8.530885,30,30,l
41.539464,85,3,7.5,6.9,7.2,9,10,5,m
173.720746,85,1,8.2,6.88237,8.009683,6,7,0,m
97.088567,89,1,8.8,7.2,8.5,9,22,12,l
43.659442,60,1,7.8,6.5,7.3,8.530885,20,5,l
2265.11044,88,1,7.9,6.88237,8.009683,4,14,12,s
189.916196,81,1,8.1,7.1,8.1,8.530885,18,17,l
343.810554,60,1,7.7,6.1,7.2,8.530885,20,0,m
28.794815,50,1,7,6.88237,8.009683,8,21,5,s
5426.098279,60,1,9.1,7,8.8,8.530885,30,18,m
93.470178,85,1,9.1,7.2,8.3,8.530885,29,7,s
447.232402,85,1,7.4,6.6,7.4,10,66,72,s
49.246832,83,3,7.5,6.88237,8.009683,9,20,12,m
194.155076,85,1,9.1,7.2,8.3,8.530885,29,9,l
18.147526,74,1,7.3,6.88237,8.009683,10,33,61,l
97.905234,85,1,9.1,7.2,8.3,8.530885,29,10,m
413.23399,85,1,9.1,7.2,8.3,8.530885,29,2,l
23.297562,85,1,7.7,6.5,7.7,8,48,39,m
119.281441,85,1,9.1,7.2,8.3,8.530885,29,17,l
183.48915,89,1,8.3,6.88237,8.009683,9,22,0,s
16992.6358,85,1,9.5,6.88237,8.5,12,33,45,m
88.78908,85,1,9.1,7.2,8.3,8.530885,29,12,l
4376.780751,81,1,7.9,6.4,7.4,8,24,0,s
10638.26334,80,1,9.5,6.88237,8.5,12,33,18,l
92.535744,60,1,8.6,7.2,8.4,8.530885,30,0,m
6094.688751,85,3,9.2,6.88237,8.4,10,25,136,s
13183.96006,89,1,9.1,7.2,8.3,8.530885,29,0,m
145.128684,86,1,8.3,7.3,8.1,9,14,0,m
117.029104,60,1,8.4,6.9,8.5,8.530885,34,9,m
254.596895,60,1,9.1,7,8.8,8.530885,30,7,l
588.826813,60,1,9.1,7,8.8,8.530885,30,15,m
3392.237538,80,1,7.8,6.3,7.6,7,33,0,s
167.447425,81,1,8.1,7.1,8.1,8.530885,18,11,l
326.965717,85,1,8.1,6.88237,8.3,9,45,8,m
2725.499726,85,1,9.1,7.2,8.3,8.530885,29,647,l
17326.95215,85,1,9.5,6.88237,8.5,12,33,21,m
15123.03595,89,1,8.3,6.5,7.8,8.530885,10,0,s
294.69445,89,1,8.1,6.88237,7.5,9,38,24,m
13316.51881,89,1,9.1,7.2,8.3,8.530885,29,6,m
5963.96688,81,1,9.1,7,8.8,8.530885,30,18,s
2552.397503,60,1,9.1,7,8.8,8.530885,30,7,m
7100.644452,88,1,8.3,6.88237,8.009683,9,22,0,s
107.955576,86,1,8.3,7.3,8.1,9,14,0,m
1249.88703,85,1,9.1,7.2,8.3,8.530885,29,0,s
6585.697274,88,1,7.9,6.6,7.9,5,33,12,s
7906.775537,81,1,8.8,7,8,8,35,0,s
81.079397,85,1,7.7,6.6,7.6,8,17,0,l
29.489918,84,1,7,6.88237,6,8.530885,26.742663,8,l
13310.67434,89,1,9.1,7.2,8.3,8.530885,29,0,m
122.757545,85,1,9.1,7.2,8.3,8.530885,29,8,l
6239.073906,80,1,9.1,7.2,8.3,8.530885,29,9,m
13315.54043,89,1,9.1,7.2,8.3,8.530885,29,3,m
590.086385,85,1,8.5,7.7,8.1,9,13,0,s
166.663041,83,1,7.1,6.88237,8.009683,5,45,9,s
360.55173,85,1,7.8,6.8,7.7,8,24,4,s
133.551386,85,1,9.1,7.2,8.3,8.530885,29,6,l
3075.802975,81,1,7.7,6.88237,8.009683,7,10,0,s
976.456801,60,1,9.1,7,8.8,8.530885,30,69,l
147.720989,85,1,8.1,6.88237,8.3,9,45,3,m
53.537101,85,1,7,6.88237,7,8.530885,33,7,s
9782.627832,88,1,9.5,6.88237,8.5,12,33,36,s
4532.644139,83,1,9.1,7.2,8.3,8.530885,29,11,m
3368.286542,88,3,8.6,6.88237,7.3,6,15,0,m
1941.147225,85,1,9,6.88237,8.5,7,22,0,s
2235.072514,60,1,9.1,7,8.8,8.530885,30,5,m
8927.141229,81,1,9.5,6.88237,8.5,12,33,7,s
604.560905,85,1,8.4,6.88237,8.5,8.530885,15,0,s
172.63414,85,1,6.9,6.88237,6.9,8.530885,30,233,s
758.754139,85,1,7.9,6.88237,7.9,8.530885,35,20,s
1309.982628,60,1,7.8,5.7,7.2,8.530885,18,0,s
31.2225,81,3,6.4,6.88237,6.8,8.530885,33,10,s
54.898825,82,1,8.1,6.8,7.9,8.530885,24,10,m
298.200446,81,1,8.1,7.1,8.1,8.530885,18,16,m
41.810676,89,1,8.8,7.2,8.5,9,22,20,l
111.043713,85,1,9.1,7.2,8.3,8.530885,29,5,m
66.502124,85,1,7.5,6.88237,8.009683,5,40,0,s
325.171821,85,1,8.1,6.88237,8.3,9,45,110,s
16701.64353,85,1,8,6.7,7.8,8,40,6,s
215.776567,85,1,9.1,7.2,8.3,8.530885,29,15,l
120.523685,85,1,7.5,6.88237,8.009683,5,40,0,s
180.419875,81,1,8.1,7.1,8.1,8.530885,18,27,l
5885.007278,60,1,9.1,7,8.8,8.530885,30,0,m
8263.869931,82,1,9.1,7,8.8,8.530885,30,0,s
2725.499726,80,3,8.6,6.88237,7.3,6,15,647,l
73.326144,82,1,7.6,6.5,7.8,8.530885,13,9,s
671.492979,85,1,7,5.8,7,8.530885,15,0,s
80.086704,89,1,8.8,7.2,8.5,9,22,1,m
9213.812491,81,1,9.1,7,8.8,8.530885,30,27,s
9447.142993,81,1,8.3,6.88237,8.009683,9,22,0,s
68.99553,81,1,6.9,6.88237,7.2,8.530885,12,0,l
190.313602,89,1,8.8,7.2,8.5,9,22,5,l
100.686263,82,1,8.1,6.8,7.9,8.530885,24,17,m
99.046885,85,1,9.1,7.2,8.3,8.530885,29,6,m
183.119554,89,1,8.3,6.88237,8.009683,9,22,12,s
16446.81576,85,1,8.4,6.7,8.2,8,33,67,s
142.432978,89,1,8.3,6.88237,8.009683,9,22,7,l
40.714432,50,1,7,6.88237,8.009683,8,21,4,s
6220.403382,82,1,9.1,7.2,8.3,8.530885,29,23.263212,s
960.766736,85,1,8.5,7.7,8.1,9,13,33,s
93.442312,85,1,9.1,7.2,8.3,8.530885,29,13,l
17764.20477,85,1,9.5,6.88237,8.5,12,33,8,s
88.126338,85,1,7.7,6.8,7.7,8,44,17,s
166.990307,81,1,8.1,7.1,8.1,8.530885,18,3,m
268.758483,60,1,7.8,5.7,7.2,8.530885,18,9,l
17654.1537,85,1,8.3,6.88237,8.009683,9,22,8,s
9588.097123,81,1,9.1,7.2,8.3,8.530885,29,13,m
4827.041569,60,1,9.1,7,8.8,8.530885,30,0,m
114.267587,89,1,8.1,6.4,7.7,9,23,6,l
127.808673,60,1,7.8,6.5,7.3,8.530885,20,8,s
4958.515404,80,1,9,6.88237,8.5,7,22,0,l
95.675693,85,1,9.1,7.2,8.3,8.530885,29,8,m
463.292394,85,1,9.1,7.2,8.3,8.530885,29,15,m
92.800416,85,1,9.1,7.2,8.3,8.530885,29,10,l
8346.589192,88,1,8.1,7.1,8.1,8.530885,18,0,s
301.055691,86,1,7.8,6.3,7.6,7,33,12,s
135.041897,85,1,7.7,6.6,7.6,8,17,48,m
169.630447,85,1,8.2,6.88237,8.009683,6,7,0,m
1616.614292,60,1,9.1,7,8.8,8.530885,30,9,l
254.502215,85,1,8.3,6.88237,7.6,8.530885,26.742663,69,s
9.294964,85,3,7.5,6.9,7.2,9,10,7,m
79.772081,60,1,7.8,6.5,7.3,8.530885,20,3,l
103.521737,85,1,9.1,7.2,8.3,8.530885,29,6,m
181.396857,89,1,8.3,6.88237,8.009683,9,22,6,s
596.751671,85,1,7.8,6.8,7.7,8,24,11,s
98.319271,85,1,8.3,6.9,8.1,8.530885,27,0,m
202.081116,88,1,7.6,5.4,7.7,8.530885,30,11,m
50.778745,60,1,7.8,6.5,7.3,8.530885,20,10,l
622.849719,50,1,6.4,6.1,6.4,8,3,49,s
3025.227239,81,1,8.1,6.6,8.1,7,33,0,s
68.417484,83,3,7.5,6.88237,8.009683,9,20,9,m
4140.957712,85,1,7.6,6.5,7.8,8.530885,13,72,s
104.66581,85,1,9.1,7.2,8.3,8.530885,29,15,l
21.333079,88,1,7.7,6.5,7.5,8.530885,14,52,l
122.999517,85,1,9.1,7.2,8.3,8.530885,29,20,l
2622.766295,71,1,8.1,6.88237,8.009683,8.530885,48,11,s
3646.18278,80,3,8.6,6.88237,7.3,6,15,0,l
4.55453,85,3,7.5,6.9,7.2,9,10,5,m
1656.446149,60,1,9.1,7,8.8,8.530885,30,10,m
2137.6524,60,1,9.1,7,8.8,8.530885,30,15,m
8216.297958,88,1,9.1,7.2,8.3,8.530885,29,33,m
13155.58967,89,1,9.1,7.2,8.3,8.530885,29,0,s
479.275763,85,1,7.8,6.8,7.7,8,24,0,s
0,85,1,7,6.88237,7,8.530885,26.742663,0,m
2450.453634,85,1,7.8,7.1,8,9,59,72,s
129.317915,85,1,9.1,7.2,8.3,8.530885,29,8,m
10399.37048,80,1,7.8,6.88237,7.8,8,47,11,s
10645.09725,80,1,9.5,6.88237,8.5,12,33,0,m
10568.23041,81,1,9.5,6.88237,8.5,12,33,0,s
3787.076811,88,3,7.7,6,7.2,9,2,33,s
2505.273377,85,1,7.5,6.5,7.5,4,11,91,s
201.954861,81,1,8.1,7.1,8.1,8.530885,18,11,m
195.329868,81,1,8.1,7.1,8.1,8.530885,18,28,m
11517.44039,80,1,8.2,6.88237,8.009683,8,25,3,s
1557.642775,81,1,7.7,6.88237,8.009683,7,10,0,s
57.496259,85,1,8.3,6.9,8.1,8.530885,27,7,m
6.631758,83,1,8.30368,6.88237,8.009683,8.530885,26.742663,101,m
5424.813931,60,1,9.1,7,8.8,8.530885,30,0,m
5800.001616,80,1,9.1,7.2,8.3,8.530885,29,0,s
40.643433,50,1,7,6.88237,8.009683,8,21,5,m
260.136693,60,1,9.1,7,8.8,8.530885,30,8,l
1209.720628,89,1,8.2,6.88237,8.009683,8,25,0,s
93.675599,85,1,9.1,7.2,8.3,8.530885,29,6,l
3188.400211,85,1,8,6.4,7.7,6,19,6,s
3322.800565,85,1,8.8,7,8,8,35,0,s
3632.414593,80,3,8.6,6.88237,7.3,6,15,37,m
5787.74147,80,1,9.1,7.2,8.3,8.530885,29,33,l
370.58879,85,1,7.3,6.6,7.3,8.530885,51,0,s
350.748434,85,1,8.4,6.88237,8.5,8.530885,15,12,m
127.123676,60,1,7.8,6.5,7.3,8.530885,20,10,m
119.789087,85,1,9.1,7.2,8.3,8.530885,29,11,l
36.249298,60,3,7.8,6.5,7.5,11,28,7,m
5890.928614,81,1,7.8,6.2,7.2,8.530885,33,0,s
1297.852975,88,3,9.2,6.88237,8.4,10,25,26,s
136.20984,85,1,9.1,7.2,8.3,8.530885,29,8,s
11523.32556,88,1,7.6,6.6,7.5,8.530885,17,33,s
62.929492,83,3,7.5,6.88237,8.009683,9,20,13,m
232.00353,85,1,9.1,7.2,8.3,8.530885,29,13,l
11029.4685,88,1,9,6.88237,8.5,7,22,16,s
269.786532,85,1,9.1,7.2,8.3,8.530885,29,9,l
241.493786,89,1,8.3,6.88237,8.009683,9,22,6,m
136.339232,85,1,9.1,7.2,8.3,8.530885,29,10,l
347.267511,85,1,7.7,6.5,7.7,8,48,5,s
11513.661,88,1,9.1,7.2,8.3,8.530885,29,0,s
125.575353,85,1,9.1,7.2,8.3,8.530885,29,9,m
17107.87747,85,1,9.5,6.88237,8.5,12,33,0,s
86.759003,85,1,6.2,5.8,6.2,8,15,21,s
15504.02421,71,1,9.1,7,8.8,8.530885,30,0,s
69.373546,83,3,7.5,6.88237,8.009683,9,20,9,m
449.515482,85,1,9.1,7.2,8.3,8.530885,29,24,m
117.735627,86,1,8.3,7.3,8.1,9,14,0,l
17104.16473,85,1,9.5,6.88237,8.5,12,33,0,m
89.587787,85,1,9.1,7.2,8.3,8.530885,29,6,l
244.996322,60,1,7.8,5.7,7.2,8.530885,18,28,l
188.255489,86,1,7,5.8,7,8.530885,15,27,s
1383.821616,85,1,7.5,6.4,7.3,8.530885,33,0,s
406.879376,85,1,6.3,6.88237,6.3,8.530885,33,0,s
9403.360866,81,1,9.1,7.2,8.3,8.530885,29,5,s
212.971349,86,1,9,6.88237,8.5,7,22,20,l
133.965629,85,1,9.1,7.2,8.3,8.530885,29,7,l
248.919753,85,1,9.1,7.2,8.3,8.530885,29,10,l
6051.900424,80,1,8.4,6.88237,8.5,8.530885,15,217,m
573.330591,60,1,9.1,7,8.8,8.530885,30,0,m
269.352166,89,1,8.8,7.2,8.5,9,22,7,l
10320.78356,88,1,8.8,7.2,8.5,9,22,0,s
232.581568,85,1,8.1,6.88237,8.1,8.530885,26.742663,19,l
30.290081,50,1,7,6.88237,8.009683,8,21,6,s
3222.540044,60,1,8.4,6.9,8.5,8.530885,34,0,s
10976.29066,80,1,8.5,6.88237,8.5,10,26.742663,14,m
43.560971,86,1,8.3,7.3,8.1,9,14,86,l
13155.67286,89,1,9.1,7.2,8.3,8.530885,29,0,l
714.32959,82,1,7.4,6.88237,8.009683,8.530885,39,0,s
221.85706,60,1,7.7,6.1,7.2,8.530885,20,0,l
16.434856,85,3,7.5,6.9,7.2,9,10,7,m
132.142641,85,1,9.1,7.2,8.3,8.530885,29,11,m
129.611601,85,1,9.1,7.2,8.3,8.530885,29,7,m
229.840903,85,1,9.1,7.2,8.3,8.530885,29,8,l
63.021942,89,1,6.7,6.88237,8.009683,7,20,0,s
91.329627,85,1,9.1,7.2,8.3,8.530885,29,7,l
4857.616978,88,1,8.8,7,8,8,35,23.263212,s
10746.24736,80,1,9.5,6.88237,8.5,12,33,0,m
566.446356,85,1,9.1,7.2,8.3,8.530885,29,7,m
616.26085,85,1,9.1,7.2,8.3,8.530885,29,6,m
17419.89336,85,1,9.5,6.88237,8.5,12,33,8,s
97.024573,85,1,9.1,7.2,8.3,8.530885,29,8,s
11179.36518,80,1,9.5,6.88237,8.5,12,33,10,m
16687.66964,85,1,8.1,6.6,7.6,9,13,0,s
6094.581059,80,1,8.30368,6.88237,8.009683,8.530885,26.742663,0,s
4958.320187,80,1,9,6.88237,8.5,7,22,0,m
6648.518535,88,1,8.1,6.88237,8.3,9,45,12,s
45.187206,89,1,8,6.7,7.9,8,39,21,m
732.259581,87,1,7.8,6.1,7.8,10,33,0,s
11.399752,50,1,6.6,6.88237,8.009683,7,7,5,s
13178.20608,89,1,9.1,7.2,8.3,8.530885,29,0,m
407.925009,85,1,7.7,6.5,7.7,8,48,0,s
467.943225,85,1,6.9,6.7,6.9,8.530885,10,0,s
2725.499726,85,1,8.2,6.88237,8.2,8.530885,26.742663,647,l
13110.60824,89,1,9.1,7.2,8.3,8.530885,29,0,m
252.412498,85,1,8.3,6.88237,8.3,8.530885,26.742663,0,m
179.559721,85,1,9.1,7.2,8.3,8.530885,29,6,m
166.260318,82,1,8,6.88237,8,8.530885,26.742663,0,m
182.495701,89,1,8.3,6.88237,8.009683,9,22,9,m
94.944255,85,1,9.1,7.2,8.3,8.530885,29,7,l
6620.143592,88,1,8.1,7.3,8.2,8.530885,10,0,s
1543.698226,85,1,9,6.88237,8.5,7,22,3,s
3956.085177,80,1,8.6,6.88237,9.1,8.530885,33,0,m
133.291231,85,1,9.1,7.2,8.3,8.530885,29,8,l
7288.822867,81,3,8.6,6.88237,7.3,6,15,7,l
3834.883542,87,1,8.1,6.88237,8.3,9,45,0,s
22.837883,88,3,7.3,6.88237,8.009683,8.530885,26.742663,12,s
94.540314,85,1,9.1,7.2,8.3,8.530885,29,13,m
2827.339486,81,1,7.5,5.9,7.7,8.530885,33,5,s
3170.33094,85,1,7.6,6.88237,8.009683,7,32,5,s
260.402434,60,1,9.1,7,8.8,8.530885,30,9,l
50.778747,60,1,7.8,6.5,7.3,8.530885,20,10,l
5309.789146,80,1,9,6.88237,8.5,7,22,0,s
1883.941055,87,1,8.6,6.88237,9.1,8.530885,33,0,s
16970.66634,85,1,9.5,6.88237,8.5,12,33,0,l
41.808789,85,3,7.5,6.9,7.2,9,10,3,s
17077.50464,85,1,9.5,6.88237,8.5,12,33,100,s
130.569668,85,1,6.8,6.88237,8.009683,8.530885,36,34,s
7359.854923,81,3,8.6,6.88237,7.3,6,15,22,l
17036.34707,85,1,9.5,6.88237,8.5,12,33,7,s
38.401387,60,1,7.8,6.5,7.3,8.530885,20,16,m
121.28629,85,1,9.1,7.2,8.3,8.530885,29,10,m
181.276144,81,1,8.1,7.1,8.1,8.530885,18,0,m
365.274433,88,1,7.3,7.3,7.1,8,10,0,s
9371.526471,60,1,8.1,6.88237,8.009683,8.530885,48,0,s
325.635451,85,1,8.2,6.88237,8.009683,6,7,7,s
133.234211,85,1,7.8,6.88237,7.8,8.530885,60,0,s
10909.02904,88,1,8.2,6.88237,8.009683,6,7,8,s
6308.442319,80,1,9.1,7.2,8.3,8.530885,29,0,s
498.293684,85,1,9.1,7.2,8.3,8.530885,29,6,m
288.022538,85,1,7,6.88237,8.009683,8.530885,60,84,s
181.385651,89,1,8.3,6.88237,8.009683,9,22,20,s
264.290827,85,1,8.1,6.88237,8.3,9,45,0,m
4175.843829,85,3,7,5.8,7.1,8.530885,25,81,s
696.271435,60,1,9.1,7,8.8,8.530885,30,13,l
129.691887,85,1,9.1,7.2,8.3,8.530885,29,8,m
50.821267,85,3,7.5,6.9,7.2,9,10,5,m
5566.976053,60,1,9.1,7,8.8,8.530885,30,13,s
16987.6041,85,1,9.5,6.88237,8.5,12,33,0,m
92.187401,85,1,9.1,7.2,8.3,8.530885,29,6,l
92.443441,85,3,7.5,6.9,7.2,9,10,7,l
135.605215,85,1,9.1,7.2,8.3,8.530885,29,12,l
96.911932,89,1,8.8,7.2,8.5,9,22,0,l
154.988816,86,1,7.8,6.3,7.6,7,33,0,s
164.727021,50,3,7.7,6.88237,7.8,9,20,5,m
384.376583,85,1,7.3,6.6,7.3,8.530885,51,69,s
9703.838359,81,1,9.1,7.2,8.3,8.530885,29,0,m
181.552564,89,1,8.3,6.88237,8.009683,9,22,17,m
121.400462,85,1,9.1,7.2,8.3,8.530885,29,6,l
888.733592,85,1,9.1,7.2,8.3,8.530885,29,8,m
113.806319,89,1,8.3,6.88237,8.009683,9,22,18,l
3980.124342,80,1,8.6,6.88237,9.1,8.530885,33,0,m
68.345565,50,1,7,6.88237,8.009683,8,21,0,s
250.812445,85,1,9.1,7.2,8.3,8.530885,29,12,l
182.970723,89,1,8.3,6.88237,8.009683,9,22,17,l
64.654,85,3,7.5,6.9,7.2,9,10,10,m
5930.789436,80,1,9.1,7.2,8.3,8.530885,29,17,m
181.419871,89,1,8.3,6.88237,8.009683,9,22,7,s
584.865017,85,1,7,5.8,7,8.530885,15,0,s
57.164592,85,1,8.3,6.9,8.1,8.530885,27,0,m
3073.837463,60,1,7.8,6.5,7.3,8.530885,20,0,s
77.461639,89,1,8.8,7.2,8.5,9,22,8,m
4434.315594,60,1,9.1,7,8.8,8.530885,30,5,s
499.180486,85,1,7.9,6.88237,7.9,9,40,10,m
269.118456,85,1,9.1,7.2,8.3,8.530885,29,8,m
262.031727,60,1,9.1,7,8.8,8.530885,30,5,l
5960.209221,80,1,7.8,7.1,8,9,59,47,s
10054.5458,81,1,8.3,6.88237,8.009683,9,22,8,s
2035.578661,60,1,9.1,7,8.8,8.530885,30,8,m
1061.610947,81,1,7.6,7,7.8,8.530885,17,0,s
11149.73491,80,1,9.5,6.88237,8.5,12,33,93,m
5846.446009,80,1,8.1,6.88237,8.3,9,45,0,s
9541.385082,88,1,8,6.6,7.3,7,46,0,s
5391.71054,80,1,7.5,5.9,7.7,8.530885,33,0,s
2522.163073,60,1,9.1,7,8.8,8.530885,30,8,m
111.652259,85,1,9.1,7.2,8.3,8.530885,29,53,l
7916.474218,88,1,8.3,6.88237,8.3,8.530885,25,0,s
120.988557,89,1,8.3,6.88237,8.009683,9,22,12,m
127.279394,85,1,8.3,6.9,8.1,8.530885,27,9,m
11.12957,80,1,7.9,6.88237,8.009683,10,26.742663,53,l
276.715297,85,1,9.1,7.2,8.3,8.530885,29,19,s
2551.156143,60,1,9.1,7,8.8,8.530885,30,6,m
505.201858,85,1,7.5,6.4,7.5,6,33,0,s
199.158034,81,1,8.1,7.1,8.1,8.530885,18,32,l
2725.499726,85,1,8.3,6.88237,8.1,8.530885,15,647,l
2725.499726,85,1,7.9,6.88237,7.9,8.530885,35,647,m
16983.32898,85,1,9.5,6.88237,8.5,12,33,22,l
168.894173,85,1,7,5.8,7,8.530885,15,9,s
262.601358,85,1,9.1,7.2,8.3,8.530885,29,10,m
168.73726,89,1,8.3,6.88237,8.009683,9,22,11,m
2021.853786,60,1,9.1,7,8.8,8.530885,30,15,l
361.378987,85,1,9.1,7.2,8.3,8.530885,29,11,s
9587.536036,81,1,9.1,7.2,8.3,8.530885,29,8,m
216.296481,85,1,9.1,7.2,8.3,8.530885,29,13,l
2725.499726,85,1,8.1,6.88237,8,8.530885,30,647,l
134.609405,85,1,9.1,7.2,8.3,8.530885,29,8,m
7871.394216,87,1,8.1,7.1,8.1,8.530885,18,0,s
62.584553,89,1,8,6.7,7.9,8,39,8,m
13178.07675,89,1,9.1,7.2,8.3,8.530885,29,1,l
149.408279,86,1,8.2,6.88237,7.8,9,30,8,s
1967.546221,88,1,7.7,6.5,7.5,8.530885,14,0,s
149.579175,85,1,9.1,7.2,8.3,8.530885,29,5,m
553.609628,85,0,8.30368,4.9,8.009683,8.530885,10,0,s
65.207511,83,3,7.5,6.88237,8.009683,9,20,16,l
1733.424039,87,1,7.7,6.5,7.5,8.530885,14,6,s
226.728573,50,1,6.6,6.88237,8.009683,7,7,0,s
8161.554413,88,1,8.2,6.88237,8.009683,6,7,0,s
124.67321,85,1,9.1,7.2,8.3,8.530885,29,11,l
23.269352,50,1,7,6.88237,8.009683,8,21,4,s
1728.094317,60,1,9.1,7,8.8,8.530885,30,9,l
817.798003,82,1,7.6,6.4,7.3,8.530885,45,0,s
9177.907201,88,1,9.5,6.88237,8.5,12,33,0,s
84.411451,89,1,8.4,6.7,8.2,8,33,10,l
1505.681901,85,1,8.3,7.3,8.1,9,14,72,s
554.001379,85,3,7.5,6.9,7.2,9,10,0,s
267.906017,85,1,7.8,6.3,7.8,8,34,8,s
78.356963,85,1,7.1,6.4,6.9,8.530885,28,6,s
16997.16186,85,1,9.5,6.88237,8.5,12,33,0,m
401.744957,85,1,9.1,7.2,8.3,8.530885,29,4,m
98.195739,86,1,8.3,6.5,7.8,8.530885,10,0,l
3772.758887,85,1,7.6,6.6,7.5,8.530885,17,72,s
6041.089797,60,1,9.1,7,8.8,8.530885,30,13,m
5718.768219,60,1,8.4,6.9,8.5,8.530885,34,0,s
533.986467,60,1,9.1,7,8.8,8.530885,30,4,m
17393.63173,85,1,9.5,6.88237,8.5,12,33,5,m
1355.91367,85,1,7.4,7,7.5,8.530885,14,0,s
100.959104,85,1,9.1,7.2,8.3,8.530885,29,8,m
8204.645147,85,1,8.1,7.1,8.1,8.530885,18,8,s
128.538484,85,1,9.1,7.2,8.3,8.530885,29,7,l
2498.545406,60,1,9.1,7,8.8,8.530885,30,0,m
1042.436393,89,1,7.7,6.88237,8.009683,8,22,0,s
208.976675,85,1,9.1,7.2,8.3,8.530885,29,6,m
660.121489,86,1,7.8,6.8,7.7,8,24,35,m
49.591451,50,3,7.7,6.88237,7.8,9,20,8,m
1622.890431,60,1,9.1,7,8.8,8.530885,30,9,l
8493.501856,71,1,8.1,6.88237,8.009683,9,19,6,s
11761.23977,87,1,8.2,6.88237,8.009683,8,25,15,s
3455.948993,85,1,7.3,6.88237,7.3,8.530885,36,4,s
88.913536,85,1,9.1,7.2,8.3,8.530885,29,5,m
7387.490129,81,1,8.8,7.2,8.5,9,22,14,m
257.415154,85,1,9.1,7.2,8.3,8.530885,29,6,s
165.032582,86,1,8.3,6.5,7.8,8.530885,10,14,l
171.888927,82,1,7.9,6.5,7.6,7,89,17,s
114.613992,85,1,9.1,7.2,8.3,8.530885,29,10,m
269.376108,89,1,8.8,7.2,8.5,9,22,14,m
1683.971602,81,1,7.5,6.88237,8.009683,8.530885,10,0,s
4368.560715,60,1,9.1,7,8.8,8.530885,30,0,m
6223.285191,80,1,9.1,7.2,8.3,8.530885,29,5,s
17130.54546,85,1,8,6.7,7.8,8,40,0,s
8972.824914,89,3,9.2,6.88237,8.4,10,25,0,s
15.699994,84,1,7.1,6.1,7.1,8.530885,32,7,m
21.967278,85,3,7.5,6.9,7.2,9,10,7,s
620.617245,85,1,9.1,7.2,8.3,8.530885,29,8,m
170.212174,85,1,9.1,7.2,8.3,8.530885,29,10,l
2492.819675,60,1,9.1,7,8.8,8.530885,30,0,m
1841.163287,60,1,9.1,7,8.8,8.530885,30,10,m
573.348101,50,1,7.8,6.88237,8.009683,9,17,1,s
130.221292,85,1,9.1,7.2,8.3,8.530885,29,7,m
1289.781965,89,1,8.3,6.88237,8.3,11,40,106,m
12504.85039,87,1,8,6.7,7.8,8,40,0,s
15.99526,85,3,7.5,6.9,7.2,9,10,7,m
110.242113,89,1,8.3,6.88237,8.009683,9,22,13,m
33.673999,85,1,7.5,6.88237,8.009683,5,40,191,m
8948.089643,89,1,8.1,6.88237,8.009683,9,19,0,s
3892.35378,85,3,8.6,6.88237,7.3,6,15,0,s
6646.8376,81,1,9.1,7,8.8,8.530885,30,0,s
639.033691,85,1,7.7,6.8,7.7,8,44,0,s
669.019357,82,1,8,6,8.2,8.530885,17,16,s
210.185521,85,1,7.4,6.3,7.2,10,56,100,s
4860.042007,85,3,7,5.8,7.1,8.530885,25,0,s
1450.20906,81,1,7.7,6.88237,8.009683,7,10,0,s
6.98379,50,3,7,6.88237,7.2,11,40,12,l
112.783475,85,1,9.1,7.2,8.3,8.530885,29,6,l
327.605489,88,1,7.2,6.2,7.1,4,10,0,s
10709.10095,80,1,9.5,6.88237,8.5,12,33,0,m
64.411654,85,1,8.1,6.88237,8.3,9,45,0,m
96.275522,85,1,9.1,7.2,8.3,8.530885,29,9,s
215.800092,85,1,9.1,7.2,8.3,8.530885,29,11,l
261.02708,60,1,9.1,7,8.8,8.530885,30,6,m
155.348743,84,1,7.8,6.5,7.8,9,25,47,m
481.870262,85,1,7.2,6.2,6.8,8.530885,37,0,s
451.67357,85,1,9.1,7.2,8.3,8.530885,29,24,m
8989.767021,81,1,8.8,7.2,8.5,9,22,12,s
3647.440705,80,3,8.6,6.88237,7.3,6,15,0,l
116.981217,85,1,9.1,7.2,8.3,8.530885,29,8,m
17119.33061,85,1,8,6.7,7.8,8,40,7,s
181.874371,89,1,8.3,6.88237,8.009683,9,22,9,m
100.339438,85,1,9.1,7.2,8.3,8.530885,29,5,m
7318.008934,88,1,8.4,6.7,8.2,8,33,0,s
102.996211,85,1,9.1,7.2,8.3,8.530885,29,10,m
341.382944,89,1,6.8,6.88237,8.009683,8.530885,93,0,s
664.010843,85,1,8.2,6.88237,7.8,9,30,5,s
21.567551,82,1,7.1,6.4,7.1,8.530885,25,11,m
176.737873,85,1,8.3,6.88237,8.1,8.530885,15,8,s
42.954868,85,1,7.2,6.5,6.8,8.530885,36,0,s
8466.683306,88,1,8.3,6.88237,8.009683,9,22,5,s
131.041087,85,1,9.1,7.2,8.3,8.530885,29,7,m
101.230096,87,3,8.6,6.88237,7.3,6,15,6,l
125.110614,85,1,9.1,7.2,8.3,8.530885,29,10,m
8511.096802,88,1,9.1,7.2,8.3,8.530885,29,0,s
451.517699,85,1,9.1,7.2,8.3,8.530885,29,6,l
7626.120165,81,1,9.5,6.88237,8.5,12,33,11,s
2508.140231,60,1,9.1,7,8.8,8.530885,30,4,m
279.683996,85,1,8.4,6.88237,8.5,8.530885,15,23,m
3028.770705,85,1,8.6,6.88237,9.1,8.530885,33,0,s
121.738082,85,1,8.3,6.88237,8.1,8.530885,15,0,m
98.89389,85,1,9.1,7.2,8.3,8.530885,29,8,m
285.087171,85,1,7.1,6.3,7.1,8,50,535,s
592.802532,74,1,7.6,6.88237,8.009683,8.530885,10,0,s
24.473025,50,1,7,6.88237,8.009683,8,21,13,m
272.742014,85,1,9.1,7.2,8.3,8.530885,29,8,l
182.909835,89,1,8.3,6.88237,8.009683,9,22,12,s
115.643537,85,1,9.1,7.2,8.3,8.530885,29,23,l
174.731722,74,1,7.2,6.88237,7.2,6,7,213,s
3692.734383,85,1,8,6.4,7.7,6,19,0,s
571.516942,86,1,7.7,6.6,7.6,8,17,4,m
3552.837765,80,3,8.6,6.88237,7.3,6,15,0,l
7615.974428,81,1,9.5,6.88237,8.5,12,33,6,m
181.877402,89,1,8.3,6.88237,8.009683,9,22,20,m
2725.499726,85,1,7.7,6.88237,7.7,8.530885,26.742663,647,m
153.74523,85,1,7.7,6.6,7.6,8,17,92,s
128.552108,85,1,9.1,7.2,8.3,8.530885,29,8,m
15181.30975,85,1,7.9,6.88237,7.8,10,43,61,s
3735.512187,80,3,8.6,6.88237,7.3,6,15,0,l
37.291,85,1,8.3,6.88237,8.1,8.530885,15,0,m
94.380265,85,3,7.5,6.9,7.2,9,10,6,m
129.92144,85,1,9.1,7.2,8.3,8.530885,29,8,m
148.328213,85,1,9.1,7.2,8.3,8.530885,29,14,l
1789.755722,60,1,9.1,7,8.8,8.530885,30,7,m
351.706141,85,1,9.1,7.2,8.3,8.530885,29,8,m
265.732057,85,1,7.2,6.7,7,8.530885,14,6,s
238.875787,85,1,8.4,6.88237,8.5,8.530885,15,201,m
1711.665944,60,1,9.1,7,8.8,8.530885,30,12,l
9690.446921,81,1,9.1,7.2,8.3,8.530885,29,13,m
330.067343,85,1,6.2,5.3,6.2,8.530885,5,16,s
8918.057914,81,1,8.1,6.88237,8.009683,8.530885,48,1,s
135.554283,85,1,9.1,7.2,8.3,8.530885,29,12,l
622.215777,85,1,9.1,7.2,8.3,8.530885,29,6,s
268.118622,85,1,9.1,7.2,8.3,8.530885,29,6,m
53.198181,85,3,7.5,6.9,7.2,9,10,10,l
5801.03315,85,1,7.9,6.4,7.4,8,24,17,s
330.668254,85,1,8.3,6.88237,8.1,8.530885,15,2566,m
2725.499726,80,1,8.5,6.88237,8.5,11,25,647,s
129.866738,85,1,9.1,7.2,8.3,8.530885,29,7,m
218.246342,85,1,7,6.88237,7,8.530885,34,12,s
3683.446971,87,1,8.8,7,8,8,35,14,s
10137.82383,89,1,7.6,7,7.6,8.530885,34,0,s
95.353058,85,1,9.1,7.2,8.3,8.530885,29,7,m
260.849128,50,3,7,6.88237,7.2,11,40,9,s
654.853766,81,1,8.1,7.1,8.1,8.530885,18,0,l
127.270641,85,1,9.1,7.2,8.3,8.530885,29,6,l
784.500308,85,1,8.2,6.88237,8.009683,6,7,0,s
390.778903,85,1,9.1,7.2,8.3,8.530885,29,0,m
1103.20974,85,1,8.3,7.3,8.1,9,14,0,s
181.507578,89,1,8.3,6.88237,8.009683,9,22,16,m
1743.053211,60,1,9.1,7,8.8,8.530885,30,10,l
25.493455,82,1,8.1,6.8,7.9,8.530885,24,7,m
30.378808,50,1,7,6.88237,8.009683,8,21,9,s
1868.751663,82,1,8,7.2,7.8,7,55,0,s
1746.175332,60,1,9.1,7,8.8,8.530885,30,38,l
467.624016,85,1,7.7,6.8,7.7,8,44,19,s
789.686192,87,1,7.8,6.1,7.8,10,33,68,s
129.966137,85,1,7.4,6.4,7.4,6,29,0,s
58.891177,50,3,7,6.88237,7.2,11,40,14,l
540.143464,85,1,6.2,5.5,6.5,8.530885,10,0,s
14.744117,85,1,6.6,6.2,6.6,5,14,0,s
248.533619,85,1,9.1,7.2,8.3,8.530885,29,8,l
94.740441,89,1,8.2,6.88237,8.009683,8,25,16,m
2175.064764,85,1,9,6.88237,8.5,7,22,17,s
86.194242,85,1,6.9,6.88237,6.9,8.530885,30,6,s
182.29706,89,1,8.3,6.88237,8.009683,9,22,12,l
170.848694,82,1,8.1,6.8,7.9,8.530885,24,8,m
195.169612,89,1,8.1,6.4,7.7,9,23,21,m
17337.85372,85,1,9.5,6.88237,8.5,12,33,4,m
104.028869,85,1,7.4,6.88237,7.4,8.530885,26.742663,8,m
132.755147,85,1,9.1,7.2,8.3,8.530885,29,10,l
310.764804,85,1,7.2,6.2,6.8,8.530885,37,21,s
3011.517675,60,1,7.8,6.5,7.3,8.530885,20,0,s
600.609218,75,3,7.2,6.88237,8.009683,6,10,26,s
5000.876475,60,1,9.1,7,8.8,8.530885,30,10,l
183.320834,85,1,6.8,6.88237,8.009683,8.530885,36,0,s
4978.090243,80,1,9,6.88237,8.5,7,22,14,m
2720.623018,89,1,7.5,5.8,6.6,4,10,0,s
10837.33487,80,1,9.5,6.88237,8.5,12,33,99,m
160.270709,82,1,8.1,6.8,7.9,8.530885,24,23,m
262.885512,60,1,9.1,7,8.8,8.530885,30,6,l
3336.594069,85,1,8.4,6.88237,8.3,11,15,91,s
374.313197,85,1,5.7,5.4,5.1,8.530885,33,0,s
1881.49659,82,1,8.1,6.88237,8.009683,9,19,3,s
141.009932,83,1,7.1,6.88237,8.009683,8.530885,33,0,s
303.664605,50,3,6.5,6.88237,8.009683,7,11,0,s
96.544571,85,1,9.1,7.2,8.3,8.530885,29,8,m
266.568423,50,3,7,6.88237,7.2,11,40,19,l
137.340741,85,1,9.1,7.2,8.3,8.530885,29,7,m
2725.499726,85,1,8.3,6.88237,8.1,8.530885,15,647,l
222.578823,83,1,8.3,6.88237,8.3,9,100,19,m
9604.928742,81,1,8.3,6.5,7.8,8.530885,10,0,s
17062.96653,85,1,9.5,6.88237,8.5,12,33,24,s
9720.82847,88,1,7.8,6.88237,7.9,8.530885,35,12,s
530.236273,60,1,9.1,7,8.8,8.530885,30,0,m
154.738211,86,1,7.9,6.88237,7.9,9,40,101,m
17834.77269,85,1,9.5,6.88237,8.5,12,33,5,s
82.296936,88,1,8,6.6,7.4,8.530885,33,0,m
6275.293693,80,1,9.1,7.2,8.3,8.530885,29,0,m
116.44096,85,1,9.1,7.2,8.3,8.530885,29,15,l
8.876369,85,3,7.5,6.9,7.2,9,10,0,m
121.930378,88,1,7.3,6.88237,8.009683,8.530885,28,6,l
63.199646,83,3,7.5,6.88237,8.009683,9,20,0,s
91.605296,85,1,7.2,6.7,7,8.530885,14,17,s
11155.47381,80,1,9.5,6.88237,8.5,12,33,17,m
94.4029,85,1,9.1,7.2,8.3,8.530885,29,12,l
5310.133,88,3,7.7,6,7.2,9,2,0,s
203.156534,85,1,7,6.6,7,8.530885,23,0,s
167.364255,81,1,8.1,7.1,8.1,8.530885,18,8,l
182.374239,89,1,8.3,6.88237,8.009683,9,22,15,s
244.628518,60,1,7.8,5.7,7.2,8.530885,18,0,l
3576.213892,89,1,8.8,7.2,8.5,9,22,5,m
1735.049012,60,1,9.1,7,8.8,8.530885,30,6,m
410.739593,85,1,9.1,7.2,8.3,8.530885,29,8,m
10301.59921,88,1,8.3,6.88237,8.009683,9,22,0,s
3818.168324,88,1,7.9,6.88237,8.009683,10,26.742663,0,s
3517.636747,80,3,8.6,6.88237,7.3,6,15,17,l
3852.053453,80,3,8.6,6.88237,7.3,6,15,0,s
186.096878,81,1,8.1,7.1,8.1,8.530885,18,12,m
98.679795,85,1,9.1,7.2,8.3,8.530885,29,15,l
13155.58967,89,1,9.1,7.2,8.3,8.530885,29,0,m
261.325411,60,1,9.1,7,8.8,8.530885,30,10,l
124.247633,85,1,9.1,7.2,8.3,8.530885,29,0,l
23.957131,50,1,7,6.88237,8.009683,8,21,5,m
11.164177,84,1,6.7,6.3,6.6,8,11,0,m
188.318302,88,1,8.2,6.88237,8.009683,9,47,0,s
7636.291599,88,1,8.1,6.6,7.6,9,13,0,s
2579.305382,60,1,9.1,7,8.8,8.530885,30,3,m
97.47921,85,1,9.1,7.2,8.3,8.530885,29,7,s
3743.915451,80,3,8.6,6.88237,7.3,6,15,132,l
3890.81482,85,3,8.2,6.5,8.1,9,33,9,s
65.240301,83,3,7.5,6.88237,8.009683,9,20,19,s
113.534831,85,1,8.3,6.88237,8.1,8.530885,15,0,s
6095.555297,80,1,8.3,6.88237,7.6,8.530885,26.742663,5,m
553.045419,85,1,9.1,7.2,8.3,8.530885,29,0,s
2108.197205,60,1,9.1,7,8.8,8.530885,30,0,l
96.931718,85,1,9.1,7.2,8.3,8.530885,29,11,l
212.387218,85,1,8.3,6.9,8.1,8.530885,27,0,m
36.333357,60,3,7.8,6.5,7.5,11,28,0,m
57.616095,85,1,6.8,6.88237,8.009683,8.530885,36,0,s
201.985276,81,1,8.1,7.1,8.1,8.530885,18,14,m
1820.85165,60,1,9.1,7,8.8,8.530885,30,8,m
243.449159,60,1,7.7,6.1,7.2,8.530885,20,0,s
8880.294658,88,1,8.5,7.7,8.1,9,13,2,s
3665.390173,80,3,8.6,6.88237,7.3,6,15,0,m
133.763452,85,1,7.7,6.6,7.6,8,17,44,m
17834.10722,85,1,9.5,6.88237,8.5,12,33,21,s
415.050092,89,1,9.5,6.88237,8.5,12,33,10,l
228.077429,85,1,9.1,7.2,8.3,8.530885,29,11,m
16.031109,85,3,7.5,6.9,7.2,9,10,6,m
50.705634,85,3,7.5,6.9,7.2,9,10,4,m
15.135939,85,1,6.4,6.1,8.009683,8.530885,40,0,s
657.638224,81,1,8.1,7.1,8.1,8.530885,18,11,m
2035.631563,60,1,9.1,7,8.8,8.530885,30,13,m
349.857015,85,1,8.1,6.88237,8.3,9,45,14,s
73.341192,82,3,7,5.8,7.1,8.530885,25,14,m
10479.80044,89,1,8.1,7.1,8.1,8.530885,18,10,s
413.163543,85,1,7.7,6.8,7.7,8,44,7,s
151.496609,85,1,9.1,7.2,8.3,8.530885,29,6,m
97.53843,85,1,8.3,6.88237,8.1,8.530885,15,0,l
17902.43756,85,1,8.3,6.88237,8.009683,9,22,124,s
79.999428,85,1,7.5,6.88237,7.5,7,30,22,s
26.061556,74,3,7.5,6.88237,7.5,10,26.742663,48,l
214.170343,85,1,6.9,6.88237,6.9,8.530885,30,0,s
97.797807,89,1,8.8,7.2,8.5,9,22,12,l
6668.938351,85,1,7.5,6.4,7.3,8.530885,33,69,s
617.004822,86,1,9,6.88237,8.5,7,22,406,l
242.847273,86,1,8.3,6.88237,8.009683,10,40,73,m
137.203904,85,1,9.1,7.2,8.3,8.530885,29,7,m
130.903462,85,1,9.1,7.2,8.3,8.530885,29,8,m
3531.722432,88,1,8.2,6.88237,8.009683,8,25,3,s
216.291862,85,1,9.1,7.2,8.3,8.530885,29,5,l
39.345047,50,3,7,6.88237,7.2,11,40,0,l
30.632954,82,1,7.1,6.4,7.1,8.530885,25,0,m
113.490588,85,1,9.1,7.2,8.3,8.530885,29,3,m
9634.578474,88,1,8.8,7.2,8.5,9,22,0,s
15972.3108,85,1,8.1,6.88237,7.5,9,38,0,s
66.970525,85,3,7.5,6.9,7.2,9,10,9,l
196.242121,85,1,8.2,6.88237,8.009683,6,7,0,l
6249.74877,80,1,9.1,7.2,8.3,8.530885,29,10,s
443.50983,85,1,9.1,7.2,8.3,8.530885,29,5,m
8603.569294,88,1,9.1,7.2,8.3,8.530885,29,19,s
111.936058,89,1,6.9,6.3,8.009683,7,28,4,s
2927.44954,89,1,8.1,6.88237,7.5,9,38,0,s
17204.5092,85,1,8.8,7.2,8.5,9,22,0,s
181.401529,89,1,8.3,6.88237,8.009683,9,22,20,s
1751.413923,86,1,9.1,7.2,8.3,8.530885,29,20,m
40.379492,50,1,7,6.88237,8.009683,8,21,6,m
9158.103464,88,1,9.5,6.88237,8.5,12,33,36,s
5511.815169,80,1,8,6.8,8.1,9,28,11,s
126.560385,85,1,7,6.88237,7,8.530885,34,15,s
5451.296073,80,1,7.9,6.4,7.4,8,24,0,s
73.899792,87,1,6.9,6.88237,8.009683,4,29,0,s
270.303305,85,1,8.2,6.88237,8.009683,6,7,0,m
2058.007898,81,1,6.8,6.4,6.8,6,33,0,s
123.799297,85,1,9.1,7.2,8.3,8.530885,29,8,l
452.825333,85,1,8.2,6.88237,8.009683,6,7,0,s
120.388755,85,1,9.1,7.2,8.3,8.530885,29,8,l
17.614254,85,3,7.5,6.9,7.2,9,10,8,m
116.493309,74,1,7.2,6.88237,8.009683,9,10,4,s
741.852861,85,1,9.1,7.2,8.3,8.530885,29,9,s
731.363195,87,1,8.2,6.88237,8.009683,8,32,0,s
121.470125,85,1,9.1,7.2,8.3,8.530885,29,8,m
54.722795,60,1,8.6,7.2,8.4,8.530885,30,0,m
1123.146325,85,1,7.3,6.88237,7.3,8.530885,36,0,s
37.984025,85,1,7.9,6.88237,7.9,8.530885,35,174,l
2120.692204,85,1,9,6.88237,8.5,7,22,0,m
214.277361,85,1,9.1,7.2,8.3,8.530885,29,24,l
574.109285,60,1,9.1,7,8.8,8.530885,30,10,l
65.717169,85,3,7.5,6.9,7.2,9,10,12,m
130.153117,60,1,7.8,6.5,7.3,8.530885,20,9,m
64.010786,89,1,8,6.7,7.9,8,39,17,l
3129.622463,88,3,9.2,6.88237,8.4,10,25,0,m
269.007312,85,1,8.4,6.88237,8.5,8.530885,15,0,m
10174.25151,81,1,8.3,6.5,7.8,8.530885,10,0,s
64.443517,89,1,8,6.7,7.9,8,39,10,l
186.388194,89,1,8.3,6.88237,8.009683,9,22,9,m
181.636924,89,1,8.3,6.88237,8.009683,9,22,16,m
5904.850835,80,1,8.2,6.88237,8.009683,6,7,0,s
4594.392623,80,3,9.2,6.88237,8.4,10,25,0,s
2499.585648,60,1,9.1,7,8.8,8.530885,30,6,m
16488.10573,85,1,8,6.6,7.3,7,46,0,s
117.447868,85,1,9.1,7.2,8.3,8.530885,29,8,m
16689.72554,85,1,8.3,6.88237,8.3,11,40,0,s
93.203439,85,1,9.1,7.2,8.3,8.530885,29,11,l
13805.5927,87,1,8,6.7,7.8,8,40,8,s
259.74774,60,1,7.8,5.7,7.2,8.530885,18,7,m
180.515457,85,1,5.5,6.1,5.5,8.530885,29,0,s
131.757777,85,1,9.1,7.2,8.3,8.530885,29,7,s
16952.66958,85,1,8,6.6,7.3,7,46,0,s
447.002724,85,1,8.1,6.88237,8.3,9,45,5,s
6548.06252,82,1,9,6.88237,8.5,7,22,0,m
128.798094,83,3,8.2,6.5,8.1,9,33,6,m
262.177798,60,1,9.1,7,8.8,8.530885,30,10,l
197.122845,89,1,8.3,6.88237,8.009683,9,22,22,l
17.354769,85,3,7.5,6.9,7.2,9,10,9,l
736.842658,85,1,7.8,6.8,7.7,8,24,0,s
10988.33083,80,1,9.5,6.88237,8.5,12,33,29,s
91.849554,85,1,7.5,6.88237,8.009683,5,40,0,m
36.222536,88,1,7.7,6.5,7.5,8.530885,14,36,l
64.184442,89,1,8.3,6.88237,8.009683,9,22,6,m
107.061859,85,1,9.1,7.2,8.3,8.530885,29,9,l
6.823661,85,3,7.5,6.9,7.2,9,10,7,s
112.850807,85,1,6.9,6.88237,8.009683,8.530885,60,6,s
173.523583,85,1,6.7,6.88237,8.009683,5,23,0,s
38.516998,60,1,7.8,6.5,7.3,8.530885,20,0,l
461.039006,85,1,9.1,7.2,8.3,8.530885,29,7,m
520.365663,82,1,7.2,6.88237,7.2,8.530885,26.742663,7,s
13305.79277,89,1,9.1,7.2,8.3,8.530885,29,0,s
192.826473,81,1,8.1,7.1,8.1,8.530885,18,13,m
418.537129,50,1,8.5,6.88237,8.009683,11,26.742663,32,m
1017.087451,60,1,7.8,6.5,7.3,8.530885,20,0,s
294.635189,85,1,8.2,6.88237,7.8,9,30,6,s
102.543605,85,1,9.1,7.2,8.3,8.530885,29,8,m
555.235261,85,1,7.8,6.8,7.7,8,24,56,s
300.116014,50,1,6.8,6.5,6.9,10,12,0,s
1203.127943,60,1,7.8,5.7,7.2,8.530885,18,0,s
79.650195,83,1,8.3,6.88237,8.3,9,100,37,s
206.013594,85,1,8.3,6.88237,8.1,8.530885,15,0,m
3588.175449,80,3,8.6,6.88237,7.3,6,15,0,s
122.829444,85,1,9.1,7.2,8.3,8.530885,29,9,m
79.152536,60,1,7.8,6.5,7.3,8.530885,20,6,m
46.32405,85,1,7.5,6.88237,8.009683,5,40,160,s
1636.787033,89,1,8.3,6.88237,8.3,11,40,9,m
1617.335139,60,1,9.1,7,8.8,8.530885,30,18,l
228.200801,81,1,8.3,6.88237,8.3,8.530885,25,0,s
87.275125,85,1,9.1,7.2,8.3,8.530885,29,10,l
10835.63518,80,1,9.5,6.88237,8.5,12,33,12,m
3748.468326,88,3,7.7,6,7.2,9,2,0,s
267.981116,60,1,7.7,6.1,7.2,8.530885,20,10,l
48.82344,60,1,7.8,6.5,7.3,8.530885,20,8,m
47.535761,60,1,7.8,6.5,7.3,8.530885,20,13,m
8497.715599,81,1,8.8,7,8,8,35,2,s
16721.15719,85,1,8.2,6.88237,8.009683,8,25,0,s
195.449521,85,1,9.1,7.2,8.3,8.530885,29,6,l
10.153163,85,3,7.5,6.9,7.2,9,10,5,m
166.194794,83,1,8,6.88237,8,8.530885,70,5,m
17748.09904,85,1,9.5,6.88237,8.5,12,33,8,s
94.162723,85,1,9.1,7.2,8.3,8.530885,29,9,l
12578.83162,81,1,8.2,6.88237,8.009683,8,25,2,s
181.59136,89,1,8.3,6.88237,8.009683,9,22,15,m
233.590324,85,1,9.1,7.2,8.3,8.530885,29,20,l
14146.88936,80,1,8,6.6,7.3,7,46,6,s
99.964584,85,1,9.1,7.2,8.3,8.530885,29,6,l
3805.412492,80,3,8.6,6.88237,7.3,6,15,0,l
97.7571,85,3,7.5,6.9,7.2,9,10,16,l
5442.669043,60,1,8.1,6.88237,8.009683,8.530885,48,1,s
2564.651459,85,1,7.3,6.88237,7.3,8.530885,36,0,s
59.87638,60,1,7.8,6.5,7.3,8.530885,20,5,l
90.597768,85,1,8.3,6.9,8.1,8.530885,27,11,m
7859.362266,81,1,8,6.7,7.8,8,40,5,s
201.173683,85,1,9.1,7.2,8.3,8.530885,29,8,m
159.11137,85,1,6,6.88237,6,8.530885,60,45,s
1951.743764,85,1,8.8,7,8,8,35,0,s
181.736706,89,1,8.3,6.88237,8.009683,9,22,16,m
51.94048,83,3,7.5,6.88237,8.009683,9,20,0,m
50.820194,85,3,7.5,6.9,7.2,9,10,5,m
147.801641,85,1,9.1,7.2,8.3,8.530885,29,18,l
894.144884,88,1,7.7,6.5,7.5,8.530885,14,0,s
127.32202,85,1,9.1,7.2,8.3,8.530885,29,6,m
98.455998,86,1,8.3,6.5,7.8,8.530885,10,0,l
262.095785,60,1,9.1,7,8.8,8.530885,30,9,l
530.050224,82,1,6.6,6.88237,8.009683,8.530885,14,0,s
10771.82481,80,1,8.3,6.88237,8.3,11,40,0,s
1649.248864,81,1,7.9,6.4,7.4,8,24,0,s
1276.206084,85,1,9.1,7.2,8.3,8.530885,29,2,s
526.986858,85,1,8.2,6.88237,8.009683,6,7,0,s
93.516937,85,1,9.1,7.2,8.3,8.530885,29,8,m
6306.322029,80,1,9.1,7.2,8.3,8.530885,29,11,m
1677.252955,60,1,9.1,7,8.8,8.530885,30,10,l
820.24098,85,1,8.5,7.7,8.1,9,13,0,s
97.748393,85,1,9.1,7.2,8.3,8.530885,29,12,l
263.629511,60,1,9.1,7,8.8,8.530885,30,10,l
12544.36462,87,1,8,6.7,7.8,8,40,0,s
1842.458466,60,1,9.1,7,8.8,8.530885,30,7,m
60.634425,82,1,8.1,6.8,7.9,8.530885,24,27,l
1428.006009,89,1,7.7,6.5,7.3,8,33,0,s
132.85075,89,1,8.8,7.2,8.5,9,22,10,l
1079.191404,81,1,8.1,6.88237,8.009683,9,19,0,s
190.081375,81,1,8.1,7.1,8.1,8.530885,18,7,l
370.322761,85,1,9.1,7.2,8.3,8.530885,29,6,l
8480.643868,88,1,8.1,7.1,8.1,8.530885,18,0,s
169.630447,85,1,8.2,6.88237,8.009683,6,7,0,m
23.817444,88,1,7.3,7.3,7.1,8,10,63,m
10860.36208,80,1,9.5,6.88237,8.5,12,33,0,m
253.700507,85,1,7.7,6.6,7.6,8,17,55,s
110.795979,85,1,6.9,6.88237,6.9,8.530885,30,15,s
134.488482,85,1,9.1,7.2,8.3,8.530885,29,6,m
182.394551,89,1,8.3,6.88237,8.009683,9,22,10,m
182.201602,89,1,8.3,6.88237,8.009683,9,22,18,m
3586.371189,80,3,8.6,6.88237,7.3,6,15,0,l
6344.714168,80,1,9.1,7.2,8.3,8.530885,29,8,m
16513.31179,84,1,9.5,6.88237,8.5,12,33,8,s
98.65636,85,1,9.1,7.2,8.3,8.530885,29,0,l
14119.50522,71,1,9.1,7,8.8,8.530885,30,11,s
3390.88272,89,1,8.3,6.88237,8.009683,9,22,0,s
2051.234635,60,1,9.1,7,8.8,8.530885,30,8,m
92.274024,85,1,9.1,7.2,8.3,8.530885,29,6,l
3128.88365,85,1,7.6,6.88237,8.009683,7,32,0,s
183.172047,89,1,8.3,6.88237,8.009683,9,22,15,s
7685.586415,85,1,7.7,6.5,7.5,8.530885,14,0,s
312.806315,85,1,9.1,7.2,8.3,8.530885,29,0,m
6208.118426,80,1,9.1,7.2,8.3,8.530885,29,14,m
289.491908,85,1,8.2,6.88237,8.009683,6,7,0,s
4442.460962,83,1,9.1,7.2,8.3,8.530885,29,4,s
2495.321303,60,1,9.1,7,8.8,8.530885,30,0,m
79.511014,85,1,7.4,6.88237,7.4,8.530885,10,0,s
1746.097703,89,1,8.3,6.88237,8.3,11,40,0,m
17.840535,60,1,8.6,7.2,8.4,8.530885,30,6,m
286.031997,85,1,9.1,7.2,8.3,8.530885,29,14,l
261.939275,60,1,9.1,7,8.8,8.530885,30,8,l
2808.556138,85,1,9,6.88237,8.5,7,22,67,s
275.9513,85,1,9.1,7.2,8.3,8.530885,29,9,l
96.112149,60,1,7.8,6.5,7.3,8.530885,20,6,l
59.073543,85,1,8.3,6.88237,8.1,8.530885,15,0,m
6904.616219,85,3,7.7,6,7.2,9,2,67,s
183.763099,85,1,7.5,6.88237,7.5,9,10,11,s
171.011819,82,1,6.7,6.88237,8.009683,4,12,0,s
2015.786295,60,1,9.1,7,8.8,8.530885,30,13,m
96.468221,85,1,9.1,7.2,8.3,8.530885,29,8,m
124.359114,85,1,8.3,6.9,8.1,8.530885,27,7,m
821.293657,85,3,7.6,6.88237,7.3,8.530885,10,0,s
13334.76162,85,1,8.1,6.4,7.7,9,23,0,s
4568.049571,60,1,9.1,7,8.8,8.530885,30,6,s
6019.603978,85,1,7.9,5.8,7.9,8.530885,33,6,s
133.821915,60,1,7.8,6.5,7.3,8.530885,20,13,s
186.02544,82,1,8.1,6.8,7.9,8.530885,24,21,m
3618.386824,80,3,8.6,6.88237,7.3,6,15,35,m
121.773717,85,1,9.1,7.2,8.3,8.530885,29,7,m
728.734426,85,1,8.3,6.88237,8.009683,10,40,8,s
3929.965219,80,1,7.9,6.6,7.6,6,33,3,s
2476.281849,60,1,9.1,7,8.8,8.530885,30,4,m
183.679989,89,1,8.3,6.88237,8.009683,9,22,5,s
1968.837611,85,1,9,6.88237,8.5,7,22,58,m
8569.072117,88,1,8.1,7.1,8.1,8.530885,18,72,s
184.155323,81,1,8.1,7.1,8.1,8.530885,18,23,l
48.433565,83,3,7.5,6.88237,8.009683,9,20,13,l
130.634015,85,1,9.1,7.2,8.3,8.530885,29,7,l
77.728641,85,1,6.9,6.4,6.7,10,44,0,s
9837.545919,88,1,8.3,6.88237,8.009683,9,22,0,s
224.386034,85,1,9.1,7.2,8.3,8.530885,29,8,l
159.079127,85,1,6.8,6.88237,8.009683,8.530885,36,9,s
16772.34042,85,1,9.5,6.88237,8.5,12,33,0,m
161.125009,86,1,8.3,6.5,7.8,8.530885,10,0,l
233.194249,87,1,7.1,6.5,6.9,8.530885,11,15,s
3537.377101,80,1,8.6,6.88237,9.1,8.530885,33,0,l
27.05427,83,1,7.6,6.88237,7.6,9,26.742663,25,m
18.853422,82,1,7.1,6.4,7.1,8.530885,25,26,l
5270.757629,80,1,9,6.88237,8.5,7,22,0,s
13305.35411,89,1,9.1,7.2,8.3,8.530885,29,6,m
77.288591,85,1,7.8,6.8,7.7,8,24,0,l
43.683536,74,1,6.6,6.88237,6.5,8,25,60,s
10645.09725,80,1,9.5,6.88237,8.5,12,33,0,m
17472.44501,85,1,9.5,6.88237,8.5,12,33,9,s
261.332167,85,1,9.1,7.2,8.3,8.530885,29,10,l
297.076645,85,1,8.3,6.88237,8.1,8.530885,15,15,s
6567.284965,88,1,8.8,7,8,8,35,0,s
810.650464,85,1,9.1,7.2,8.3,8.530885,29,0,s
29.887402,88,1,8,6.6,7.4,8.530885,33,3,m
10283.68662,81,1,9.5,6.88237,8.5,12,33,0,s
12671.26105,81,1,9.5,6.88237,8.5,12,33,0,s
2046.021214,87,3,9.2,6.88237,8.4,10,25,8,s
257.971773,85,1,8.4,6.88237,8.5,8.530885,15,27,l
638.868849,87,1,7.8,6.88237,8.009683,8,28,23.263212,s
778.548207,85,1,7.5,6.88237,8.009683,5,40,0,s
266.162482,60,1,9.1,7,8.8,8.530885,30,0,l
1809.187356,60,1,9.1,7,8.8,8.530885,30,7,m
233.022247,85,1,9.1,7.2,8.3,8.530885,29,0,s
1711.707141,60,1,9.1,7,8.8,8.530885,30,9,m
700.933393,81,1,8.1,6.88237,8.009683,9,19,23.263212,s
287.901204,84,1,6.9,6.1,6.9,8.530885,24,13,s
210.134313,50,1,6.8,6.88237,6.8,8.530885,26.742663,0,l
69.644717,85,1,7.7,6.6,7.6,8,17,8,l
4138.744753,85,1,8,6.4,7.7,6,19,6,s
10608.15003,80,1,9.5,6.88237,8.5,12,33,20,m
75.293177,89,1,8.3,6.88237,8.009683,9,22,4,m
8914.494012,88,1,8.8,7.2,8.5,9,22,0,s
2488.513374,60,1,9.1,7,8.8,8.530885,30,9,m
2019.242219,60,1,9.1,7,8.8,8.530885,30,10,l
182.251276,89,1,8.3,6.88237,8.009683,9,22,12,m
2261.406536,81,1,7.7,6.9,7.7,3,20,0,s
189.617502,81,1,8.1,7.1,8.1,8.530885,18,10,l
155.530551,85,1,9.1,7.2,8.3,8.530885,29,9,l
3616.490168,80,3,8.6,6.88237,7.3,6,15,0,l
2185.055981,71,1,8.1,6.88237,8.009683,8.530885,48,0,s
2579.357619,60,1,9.1,7,8.8,8.530885,30,5,m
21.366153,30,1,7.2,6.2,7.3,8,10,9,m
572.612193,85,1,6.9,6.88237,8.009683,8,9,7,s
6799.962567,88,1,8.3,6.88237,8.009683,9,22,4,s
97.258627,85,1,9.1,7.2,8.3,8.530885,29,10,l
249.570896,60,1,7.8,5.7,7.2,8.530885,18,8,l
5695.799546,80,1,7.9,6.88237,7.2,8.530885,28,11,s
139.766167,82,1,7.3,6.8,7.4,8.530885,16,15,m
73.060718,89,1,7.8,6.88237,8.009683,9,21,8,s
48.42329,87,3,9.2,6.88237,8.4,10,25,0,m
1817.626526,81,3,7.2,6.6,7.5,8.530885,28,2,s
10822.28907,81,1,9.5,6.88237,8.5,12,33,7,s
60.103882,89,1,8.8,7.2,8.5,9,22,8,l
3834.346302,84,1,9.1,7.2,8.3,8.530885,29,16,s
28.136071,83,1,7.9,6.3,7.6,6,24,0,m
10485.19811,88,1,9.5,6.88237,8.5,12,33,6,s
4975.399916,85,3,8.2,6.5,8.1,9,33,0,s
5.395401,85,3,7.5,6.9,7.2,9,10,0,m
298.729617,85,1,8.4,6.88237,8.5,8.530885,15,1,m
96.693942,85,1,9.1,7.2,8.3,8.530885,29,7,m
11698.59214,80,1,8.3,6.88237,8.009683,9,22,5,s
5389.683483,80,1,7.7,6.88237,7.3,10,51,11,s
181.549524,89,1,8.3,6.88237,8.009683,9,22,17,l
5988.58476,85,1,7.9,5.8,7.9,8.530885,33,4,s
132.437555,89,1,8.8,7.2,8.5,9,22,4,l
88.241932,85,1,9.1,7.2,8.3,8.530885,29,18,l
110.789069,85,1,9.1,7.2,8.3,8.530885,29,7,m
17005.28663,85,1,9.5,6.88237,8.5,12,33,0,m
1610.364486,81,1,8.1,6.8,7.9,8.530885,24,0,s
3948.936998,80,1,8.6,6.88237,9.1,8.530885,33,107,m
106.520909,85,1,8.1,6.88237,8,8.530885,30,8,m
3897.562469,81,1,7.9,6.4,7.4,8,24,0,s
1740.607232,81,1,7.7,6.88237,8.009683,8.530885,37,0,s
234.194627,85,1,7.3,6.6,7.3,8.530885,51,0,s
10239.51042,81,3,8.6,6.88237,7.3,6,15,17,s
5942.328036,80,1,9.1,7.2,8.3,8.530885,29,6,m
720.086668,82,1,7.6,6.88237,8.009683,8.530885,23,0,s
3660.351896,88,3,8.6,6.88237,7.3,6,15,0,s
2802.11492,89,1,8.2,6.88237,8.009683,8,25,23.263212,s
45.792906,89,1,8.8,7.2,8.5,9,22,8,l
15.61079,88,1,6,6.88237,8.009683,6,30,0,s
4843.499839,81,1,8.1,7.1,8.1,8.530885,18,0,s
170.089923,85,1,8.1,6.88237,8,8.530885,30,7,s
1800.622022,60,1,9.1,7,8.8,8.530885,30,6,m
82.026046,89,1,8.4,6.7,8.2,8,33,13,l
425.564519,85,1,9.1,7.2,8.3,8.530885,29,5,m
98.79173,85,1,8.3,6.9,8.1,8.530885,27,8,m
10540.56906,80,1,8.3,6.88237,8.009683,9,22,11,s
183.335504,89,1,8.3,6.88237,8.009683,9,22,12,s
447.668659,85,1,8.4,6.88237,8.5,8.530885,15,233,m
148.39777,89,1,8.3,6.88237,8.009683,9,22,17,m
252.509255,85,1,8.4,6.88237,8.5,8.530885,15,22,s
96.343316,85,1,9.1,7.2,8.3,8.530885,29,8,s
6703.187454,88,1,8.3,7.3,8.1,9,14,0,s
219.858419,80,3,7.7,6,7.2,9,2,0,s
2725.499726,85,1,9.1,7.2,8.3,8.530885,29,647,l
354.727745,85,1,9.1,7.2,8.3,8.530885,29,16,m
9338.325418,80,1,8,6.7,7.9,8,39,11,s
121.16009,85,1,9.1,7.2,8.3,8.530885,29,8,m
5280.028369,84,1,7.9,6.4,7.4,8,24,7,s
7660.987997,81,1,8.5,7.7,8.1,9,13,0,s
133.627415,85,1,9.1,7.2,8.3,8.530885,29,10,l
133.248352,85,1,9.1,7.2,8.3,8.530885,29,7,s
4827.733083,60,1,9.1,7,8.8,8.530885,30,9,m
252.184381,85,1,9.1,7.2,8.3,8.530885,29,0,m
14.122968,84,1,7.1,6.1,7.1,8.530885,32,0,m
36.249298,60,3,7.8,6.5,7.5,11,28,7,m
10107.23159,81,3,8.6,6.88237,7.3,6,15,26,m
189.242349,85,1,8.3,7.3,8.1,9,14,78,s
260.274416,60,1,9.1,7,8.8,8.530885,30,10,l
11.83135,50,1,6.6,6.88237,8.009683,7,7,10,s
1651.37652,60,1,9.1,7,8.8,8.530885,30,7,l
69.398691,83,3,7.5,6.88237,8.009683,9,20,7,l
16.419546,50,1,7,6.88237,8.009683,8,21,4,m
4261.894259,88,3,7.7,6,7.2,9,2,4,s
1738.582943,60,1,9.1,7,8.8,8.530885,30,9,m
485.740166,89,1,9.5,6.88237,8.5,12,33,655,l
57.960025,83,3,7.5,6.88237,8.009683,9,20,11,l
11479.72201,88,1,9.1,7.2,8.3,8.530885,29,5,s
234.277469,60,1,7.7,6.1,7.2,8.530885,20,0,l
3956.085177,80,1,8.6,6.88237,9.1,8.530885,33,0,m
10183.76016,88,1,8.1,6.88237,8.009683,9,19,0,s
169.299244,85,1,7.4,6.88237,7.4,8.530885,26.742663,18,m
374.356586,85,1,7.2,6,7.2,8.530885,44,0,s
5291.548123,80,1,9,6.88237,8.5,7,22,12,s
110.147198,85,1,6.9,6.88237,8.009683,8.530885,10,0,s
4498.234,80,1,8.1,7.1,8.1,8.530885,18,6,s
326.436335,85,1,8.4,6.88237,8.5,8.530885,15,0,m
931.065389,86,1,9.1,7.2,8.3,8.530885,29,9,s
494.352827,86,1,7.8,6.8,7.7,8,24,0,l
246.924695,85,1,9.1,7.2,8.3,8.530885,29,3,l
4146.438589,80,3,8.1,6.88237,8.1,8.530885,25,0,s
3557.642633,89,1,9.5,6.88237,8.5,12,33,0,l
17029.48263,85,1,9.5,6.88237,8.5,12,33,0,m
9795.776679,89,1,8.1,6.88237,8.009683,9,19,0,s
3231.035644,85,1,7.6,6.88237,8.009683,7,32,14,s
13315.36125,89,1,9.1,7.2,8.3,8.530885,29,6,m
133.95925,85,1,9.1,7.2,8.3,8.530885,29,7,s
133.978409,89,1,8.4,6.7,8.2,8,33,0,m
306.201942,85,1,7.1,6.88237,8.009683,6,35,69,s
121.230037,85,1,9.1,7.2,8.3,8.530885,29,9,m
117.131169,85,1,9.1,7.2,8.3,8.530885,29,16,l
551.157327,85,1,7.3,6.4,7.3,8.530885,32,3,s
134.064404,85,1,9.1,7.2,8.3,8.530885,29,7,m
4380.06481,81,1,8.1,6.88237,8.3,9,45,0,s
15.032162,88,3,6.8,6.88237,8.009683,9,26.742663,0,l
228.146883,85,1,9.1,7.2,8.3,8.530885,29,12,m
130.628972,85,1,9.1,7.2,8.3,8.530885,29,7,l
3168.711304,80,1,8.1,7.3,8.2,8.530885,10,0,s
33.901876,82,3,7,5.8,7.1,8.530885,25,8,l
229.95375,85,1,9.1,7.2,8.3,8.530885,29,12,l
181.522101,89,1,8.3,6.88237,8.009683,9,22,16,m
232.948835,85,1,9.1,7.2,8.3,8.530885,29,9,l
52.150611,83,3,7.5,6.88237,8.009683,9,20,17,m
70.712971,89,1,9.5,6.88237,8.5,12,33,6,l
2967.892839,85,1,7.8,7.1,8,9,59,0,s
4152.619734,85,3,7,5.8,7.1,8.530885,25,67,s
81.713726,60,1,7.8,6.5,7.3,8.530885,20,1,m
63.844181,87,1,8.6,6.88237,9.1,8.530885,33,0,l
4167.388491,85,1,7.6,6.5,7.8,8.530885,13,6,s
1593.502196,85,1,9,6.88237,8.5,7,22,6,s
3576.940047,80,3,8.6,6.88237,7.3,6,15,13,s
481.937309,85,1,7.7,6.88237,7.7,8.530885,26.742663,9,s
270.843395,85,1,7.4,6.2,7.1,8.530885,10,95,s
153.779534,74,1,6.9,6.88237,8.009683,9,26.742663,0,l
101.194897,85,1,9.1,7.2,8.3,8.530885,29,6,m
6225.777919,80,1,9.1,7.2,8.3,8.530885,29,11,m
146.879927,85,1,8.4,6.88237,8.4,8.530885,26.742663,5,m
2152.111918,88,1,7.7,6.5,7.5,8.530885,14,33,s
2488.507184,60,1,9.1,7,8.8,8.530885,30,9,m
27.644354,50,1,7,6.88237,8.009683,8,21,5,s
6.415429,85,3,7.5,6.9,7.2,9,10,12,l
17063.05562,85,1,9.5,6.88237,8.5,12,33,62,s
13803.92038,81,1,9.1,7,8.8,8.530885,30,10,s
7335.566997,73,1,8.6,8,8.6,11,33,0,s
99.072657,89,1,8.8,7.2,8.5,9,22,20,l
3222.26074,80,1,7.6,6.5,7.6,6,33,6,s
7228.636662,81,1,8.8,7.2,8.5,9,22,5,m
232.361078,85,1,7.4,6.3,7.2,10,56,22,s
186.634325,60,1,9.1,7,8.8,8.530885,30,14,l
120.677482,89,1,7.5,5.8,6.6,4,10,0,m
1736.673045,60,1,9.1,7,8.8,8.530885,30,6,m
182.326858,89,1,8.3,6.88237,8.009683,9,22,13,m
10018.15135,81,1,9.1,7.2,8.3,8.530885,29,2,s
428.888413,85,1,9.1,7.2,8.3,8.530885,29,9,m
7401.453177,88,1,9.1,7.2,8.3,8.530885,29,0,s
410.160137,85,1,9.1,7.2,8.3,8.530885,29,9,m
39.128374,60,1,7.8,6.5,7.3,8.530885,20,6,m
17.682893,85,3,7.5,6.9,7.2,9,10,5,m
2041.682478,85,1,8.8,7,8,8,35,10,s
129.935205,83,3,8.2,6.5,8.1,9,33,0,l
995.195701,85,1,6.8,6.9,6.8,8.530885,15,19,s
131.564958,85,1,9.1,7.2,8.3,8.530885,29,10,m
2512.508317,85,1,7.8,7.1,8,9,59,46,s
107.274393,85,1,9.1,7.2,8.3,8.530885,29,8,m
384.22919,81,1,8.1,7.1,8.1,8.530885,18,8,m
188.243913,81,1,8.1,7.1,8.1,8.530885,18,5,l
9085.665868,81,1,9.1,7.2,8.3,8.530885,29,0,s
1310.164566,88,1,7.9,6.88237,8.009683,4,14,8,s
220.063851,87,3,7.8,6.88237,7.9,11,35,14,s
5398.313224,85,1,7.9,6.6,7.9,8,49,0,s
58.017224,82,1,7.6,6.5,7.8,8.530885,13,0,s
8656.617516,88,1,9.1,7.2,8.3,8.530885,29,20,s
138.067257,84,3,3.7,6.88237,3.7,8.530885,8,0,s
7378.712083,81,3,8.6,6.88237,7.3,6,15,9,l
2391.959795,85,1,7.5,6.5,7.5,4,11,67,s
100.802175,85,3,7.5,6.9,7.2,9,10,8,m
27.519332,50,1,7,6.88237,8.009683,8,21,8,m
120.826084,85,1,7.9,6.88237,7.9,8.530885,26.742663,10,l
31.392342,50,1,7,6.88237,8.009683,8,21,9,l
4152.619734,85,3,7,5.8,7.1,8.530885,25,67,s
9932.602678,80,1,8.4,6.7,8.2,8,33,0,s
124.401409,85,1,9.1,7.2,8.3,8.530885,29,12,m
72.549752,60,1,7.8,6.5,7.3,8.530885,20,17,l
406.411769,85,1,8.4,6.88237,8.4,8.530885,26.742663,75,l
5981.892129,80,1,9.1,7.2,8.3,8.530885,29,12,m
27.823317,50,1,7,6.88237,8.009683,8,21,6,s
135.301659,85,1,9.1,7.2,8.3,8.530885,29,11,l
232.390159,85,1,8.4,6.88237,8.5,8.530885,15,62,m
94.190018,85,1,7.3,6.88237,7.3,8.530885,40,0,s
2725.499726,85,1,8.3,6.88237,8.1,8.530885,15,647,m
13170.34924,89,1,9.1,7.2,8.3,8.530885,29,0,m
2725.499726,80,1,9.5,6.88237,8.5,12,33,647,l
198.809485,81,1,8.1,7.1,8.1,8.530885,18,21,l
3670.433251,80,3,8.6,6.88237,7.3,6,15,0,l
4957.204345,80,1,9,6.88237,8.5,7,22,0,l
51.627879,81,1,7.6,6.88237,8.009683,8.530885,12,0,m
37.05444,88,3,5.5,6.88237,8.009683,7,26.742663,0,s
866.065004,87,1,7.7,6.88237,7.3,10,51,68,s
2016.864856,60,1,9.1,7,8.8,8.530885,30,4,l
119.031859,89,1,8.8,7.2,8.5,9,22,0,m
12588.8161,82,1,8.2,6.88237,8.009683,8,25,0,s
1095.279773,82,1,6.9,6.88237,8.009683,7,20,0,s
6305.74641,60,1,9.1,7,8.8,8.530885,30,3,l
1040.092046,87,1,8.7,7.7,7.8,6,30,0,s
182.06832,89,1,8.3,6.88237,8.009683,9,22,16,l
115.792292,85,1,9.1,7.2,8.3,8.530885,29,10,m
5938.146545,80,1,9.1,7.2,8.3,8.530885,29,0,m
7240.686842,81,3,8.6,6.88237,7.3,6,15,0,s
152.021133,85,1,8.3,7.3,8.1,9,14,0,m
12213.18487,89,1,7.6,6.4,7.3,8.530885,45,0,s
7805.073326,81,1,9.1,7,8.8,8.530885,30,0,s
32.36868,81,1,8,6.88237,8,8.530885,33,115,m
2725.499726,85,1,8.1,6.88237,8,8.530885,30,647,l
143.316441,85,1,8.2,6.88237,8.009683,6,7,0,m
52.95809,85,3,7.5,6.9,7.2,9,10,8,l
8381.201316,81,1,8,6.8,8.1,9,28,0,s
134.889485,85,1,9.1,7.2,8.3,8.530885,29,7,l
3956.085177,80,1,8.6,6.88237,9.1,8.530885,33,0,m
240.322567,85,1,9.1,7.2,8.3,8.530885,29,8,l
498.855166,85,1,9.1,7.2,8.3,8.530885,29,8,m
62.128248,83,3,7.5,6.88237,8.009683,9,20,16,l
12.544113,84,1,7.1,6.1,7.1,8.530885,32,55,m
722.945145,85,3,7.5,6.9,7.2,9,10,10,s
17537.46319,85,1,8,6.6,7.3,7,46,0,s
1642.273708,88,1,7.8,6.88237,8.009683,8,28,20,s
80.190994,85,3,7.5,6.9,7.2,9,10,7,s
134.528122,85,1,9.1,7.2,8.3,8.530885,29,9,s
299.202636,85,1,9.1,7.2,8.3,8.530885,29,9,m
2725.499726,85,3,7.6,6.88237,7.3,8.530885,10,647,s
600.639267,85,1,9.1,7.2,8.3,8.530885,29,4,m
112.397125,85,1,7.5,6.88237,8.009683,5,40,8,s
2006.280899,60,1,9.1,7,8.8,8.530885,30,8,m
1590.745781,60,1,7.8,6.5,7.3,8.530885,20,23.263212,s
12461.8171,87,1,8.3,6.88237,8.009683,9,22,9,s
2107.749416,60,1,9.1,7,8.8,8.530885,30,7,m
13155.27103,89,1,9.1,7.2,8.3,8.530885,29,0,m
11884.48292,81,1,8.5,6.88237,8.3,11,70,0,s
9891.607579,81,1,9,6.88237,8.5,7,22,24,s
199.690543,85,1,9.1,7.2,8.3,8.530885,29,6,l
6116.376347,80,1,9.1,7.2,8.3,8.530885,29,10,m
167.421203,84,1,7.1,6.4,7.4,8.530885,33,13,s
80.114095,85,1,8.3,6.88237,8.3,8.530885,26.742663,6,l
174.385028,81,1,8.1,7.1,8.1,8.530885,18,14,l
111.199105,85,1,7.9,6.88237,7.9,9,40,8,m
17985.8777,84,1,9.5,6.88237,8.5,12,33,12,s
17399.24042,85,1,9.5,6.88237,8.5,12,33,0,s
286.602095,85,1,6.4,6,6.4,8.530885,10,69,s
101.575643,85,1,9.1,7.2,8.3,8.530885,29,7,m
1617.215411,60,1,9.1,7,8.8,8.530885,30,9,l
13800.72854,87,1,8.8,7.2,8.5,9,22,0,s
234.703914,60,3,7.8,6.5,7.5,11,28,0,m
313.953719,85,1,9.1,7.2,8.3,8.530885,29,9,m
38.973994,82,1,7.3,6.88237,7.3,8.530885,26.742663,26,l
405.102188,86,1,7.9,6.88237,7.2,8.530885,28,73,s
9431.530114,81,1,8.8,7.2,8.5,9,22,3,s
105.770864,85,1,9.1,7.2,8.3,8.530885,29,7,l
40.381886,88,1,7.3,7.3,7.1,8,10,33,s
321.329849,60,1,7.8,5.7,7.2,8.530885,18,0,m
535.97584,87,3,9.2,6.88237,8.4,10,25,0,l
13.734357,82,1,7.1,6.4,7.1,8.530885,25,16,m
93.792985,85,1,9.1,7.2,8.3,8.530885,29,12,l
4386.228102,88,1,8.6,6.88237,9.1,8.530885,33,0,s
16521.59348,89,1,9.1,7.2,8.3,8.530885,29,10,s
24.96467,74,3,7,6.8,7.3,8.530885,13,4,m
125.108808,85,1,9.1,7.2,8.3,8.530885,29,8,m
2725.499726,85,1,9.1,7.2,8.3,8.530885,29,647,l
1148.255167,85,3,6.8,6.3,6.9,8.530885,20,100,s
3095.784706,60,1,7.8,6.5,7.3,8.530885,20,0,s
177.732959,85,1,5.6,6.88237,8.009683,8.530885,11,0,s
135.525631,85,1,9.1,7.2,8.3,8.530885,29,6,s
1652.50137,60,1,8.6,7.4,8.5,8.530885,20,0,s
352.606948,85,1,6.9,6.4,6.7,10,44,0,s
98.025213,85,1,8.3,6.9,8.1,8.530885,27,4,m
5728.816268,81,1,8.6,6.88237,9.1,8.530885,33,0,s
4771.509349,87,1,8.1,7.3,8.2,8.530885,10,5,s
220.780867,60,1,7.7,6.1,7.2,8.530885,20,11,m
108.090993,50,1,6.6,6.88237,8.009683,7,40,2,s
132.443858,85,1,9.1,7.2,8.3,8.530885,29,6,m
11.842508,84,1,7.1,6.1,7.1,8.530885,32,0,l
268.609095,85,1,9.1,7.2,8.3,8.530885,29,6,m
8348.118024,80,1,7.3,6.88237,7.3,8.530885,36,0,s
226.797243,85,1,7.2,6.1,7,8.530885,44,0,s
6.462411,85,3,7.5,6.9,7.2,9,10,6,m
53.595577,83,3,7.5,6.88237,8.009683,9,20,21,m
15739.39998,86,1,9.5,6.88237,8.5,12,33,0,m
2441.467771,85,1,7.6,6.4,7.6,6,50,95,s
272.497894,85,1,8,6.88237,8,5,26.742663,7,m
262.190746,85,1,9.1,7.2,8.3,8.530885,29,7,m
13302.16014,89,1,9.1,7.2,8.3,8.530885,29,0,m
80.50721,85,1,9.1,7.2,8.3,8.530885,29,30,l
17648.84144,85,1,9.5,6.88237,8.5,12,33,0,s
345.95336,85,1,8.3,6.88237,8.1,8.530885,15,46,s
2725.499726,85,1,8,6.88237,8,5,26.742663,647,m
337.751751,85,1,7.1,6.88237,8.009683,6,35,10,s
309.108335,85,1,9.1,7.2,8.3,8.530885,29,10,l
261.474712,60,1,9.1,7,8.8,8.530885,30,6,l
98.607683,89,1,8.8,7.2,8.5,9,22,14,l
1947.598096,85,1,7.5,6.4,7.3,8.530885,33,100,s
125.231621,86,1,8.3,6.5,7.8,8.530885,10,16,m
118.104115,85,1,9.1,7.2,8.3,8.530885,29,8,l
234.162622,60,1,7.7,6.1,7.2,8.530885,20,11,l
984.340794,81,1,8.1,6.88237,8.009683,9,19,0,s
71.693748,89,1,7.8,6.6,7.5,9,58,62,s
229.388374,85,1,8.4,6.88237,8.5,8.530885,15,8,l
181.823079,89,1,8.3,6.88237,8.009683,9,22,16,m
3558.382781,80,1,8.6,6.88237,9.1,8.530885,33,5,l
59.465586,85,1,8.4,6.88237,8.4,8.530885,26.742663,95,l
69.265628,83,3,7.5,6.88237,8.009683,9,20,12,s
67.541588,60,1,7.8,6.5,7.3,8.530885,20,0,s
9.125338,85,3,7.5,6.9,7.2,9,10,6,m
127.78856,60,1,7.8,6.5,7.3,8.530885,20,8,m
6562.970476,89,1,8.1,7.1,8.1,8.530885,18,0,s
6308.593669,80,1,9.1,7.2,8.3,8.530885,29,8,m
120.331931,83,3,8.2,6.5,8.1,9,33,0,m
9802.241938,81,1,9.1,7,8.8,8.530885,30,0,s
261.408263,60,1,9.1,7,8.8,8.530885,30,7,l
2083.043903,85,1,9,6.88237,8.5,7,22,0,m
212.804282,81,1,8.1,7.1,8.1,8.530885,18,0,m
7264.477812,88,1,8.3,7.3,8.1,9,14,0,s
6.521429,89,1,8.4,6.7,8.2,8,33,67,m
120.164917,85,1,9.1,7.2,8.3,8.530885,29,6,m
15509.21226,88,1,8.1,6.88237,8.009683,8.530885,48,23.263212,s
17058.53922,85,1,9.5,6.88237,8.5,12,33,0,m
197.618315,85,1,7,6.88237,8.009683,8.530885,80,0,s
11408.72298,88,3,8.2,6.5,8.1,9,33,0,s
9.294356,82,1,6.4,6.88237,6,8.530885,10,26,l
309.757312,85,1,7.3,6.88237,7.3,8.530885,40,0,s
659.687116,86,1,7.8,6.8,7.7,8,24,0,s
307.068882,85,1,9.1,7.2,8.3,8.530885,29,8,l
419.363381,85,3,7.5,6.9,7.2,9,10,0,s
1681.024187,89,1,9.5,6.88237,8.5,12,33,19,s
3744.574975,80,1,8.6,6.88237,9.1,8.530885,33,0,m
3687.756447,80,1,8.6,6.88237,9.1,8.530885,33,0,s
53.945212,85,1,6,6.88237,6,8.530885,60,0,s
6681.487485,88,1,8,6.7,7.9,8,39,5,s
124.053177,85,1,9.1,7.2,8.3,8.530885,29,6,m
15493.38374,89,1,8.8,7,8,8,35,0,s
76.838293,85,3,7.5,6.9,7.2,9,10,4,m
7672.006524,85,1,8.1,7.1,8.1,8.530885,18,69,s
6033.311562,80,1,8.1,6.88237,8.009683,9,19,0,s
96.614845,85,3,7.5,6.9,7.2,9,10,13,l
244.199911,85,1,7.2,6.88237,8.009683,8.530885,10,5,s
206.489495,60,1,8.4,6.9,8.5,8.530885,34,11,m
58.235905,88,1,7.7,6.5,7.5,8.530885,14,30,l
6308.774093,80,1,9.1,7.2,8.3,8.530885,29,8,s
234.825121,89,1,8.3,6.88237,8.009683,9,22,11,m
301.393409,50,1,5.7,5.5,5.5,8.530885,8,0,s
611.545851,85,1,7.7,6.6,7.6,8,17,0,s
130.799559,85,1,9.1,7.2,8.3,8.530885,29,7,l
207.169137,60,1,7.3,6.88237,8.009683,9,18,11,s
2395.332405,85,1,7.5,6.5,7.5,4,11,52,s
4446.852008,80,3,9.2,6.88237,8.4,10,25,0,m
118.069315,85,1,9.1,7.2,8.3,8.530885,29,15,l
15.699994,84,1,7.1,6.1,7.1,8.530885,32,7,s
56.761988,85,1,7.5,6.88237,7.5,7,30,0,m
3481.481052,80,3,8.6,6.88237,7.3,6,15,0,l
197.325633,88,1,7,6.88237,8.009683,8,10,0,s
3660.060599,80,3,8.6,6.88237,7.3,6,15,0,m
270.666666,85,1,7.4,6.88237,7.4,8.530885,60,0,s
568.912424,85,1,9.1,7.2,8.3,8.530885,29,9,s
102.070551,83,3,8.2,6.5,8.1,9,33,23,l
31.190234,85,1,7.7,6.5,7.7,8,48,0,l
89.538059,73,1,8.5,6.88237,8.009683,11,26.742663,28,l
181.514282,89,1,8.3,6.88237,8.009683,9,22,19,s
3497.086004,80,3,8.6,6.88237,7.3,6,15,0,l
181.566399,89,1,8.3,6.88237,8.009683,9,22,20,m
290.888215,85,1,6.9,6.7,6.9,8.530885,12,0,s
10354.3653,80,1,8.3,6.88237,8.3,11,40,0,s
43.021027,85,1,8.3,6.88237,8.1,8.530885,15,6,l
48.334487,83,3,7.5,6.88237,8.009683,9,20,16,m
252.697014,85,1,8.1,6.88237,8.3,9,45,0,s
54.515762,89,1,8,6.7,7.9,8,39,11,m
143.566781,85,1,7.9,6.88237,7.9,8.530885,35,0,s
408.1652,85,1,8.4,6.88237,8.4,8.530885,26.742663,0,m
154.755122,85,1,8.3,6.88237,8.1,8.530885,15,11,m
209.149923,85,1,7.7,6.88237,7.7,8.530885,26.742663,186,m
2654.084416,87,1,8.6,6.88237,9.1,8.530885,33,5,s
119.03315,89,1,8.8,7.2,8.5,9,22,8,m
718.49016,50,1,6.8,6.5,6.9,10,12,0,s
3756.173076,82,1,8.1,6.88237,8.009683,9,19,0,s
5365.31628,88,1,7.5,6.88237,8.009683,6,57,0,s
96.806573,85,1,7,6.3,7,7,44,0,s
187.112025,82,1,7,6.88237,7.3,8.530885,13,132,m
13892.67934,89,1,9.1,7.2,8.3,8.530885,29,0,s
7673.774909,87,1,8.1,7.1,8.1,8.530885,18,68,s
1267.678024,81,1,7.6,7.2,7.6,8.530885,28,0,s
183.664055,89,1,8.3,6.88237,8.009683,9,22,6,s
638.712153,60,1,9.1,7,8.8,8.530885,30,5,l
1826.99626,60,1,9.1,7,8.8,8.530885,30,8,s
130.153117,60,1,7.8,6.5,7.3,8.530885,20,9,l
81.667214,85,1,9.1,7.2,8.3,8.530885,29,18,l
162.675977,85,1,6.8,6.88237,8.009683,8.530885,40,0,s
1778.311043,60,1,9.1,7,8.8,8.530885,30,4,m
2352.134992,85,1,7.6,7.2,7.6,8.530885,28,0,s
489.403626,85,1,6.9,6.6,6.9,8.530885,48,67,s
181.442119,89,1,8.3,6.88237,8.009683,9,22,15,s
10728.76812,80,1,9.5,6.88237,8.5,12,33,0,m
323.546006,85,1,9.1,7.2,8.3,8.530885,29,7,m
9335.388624,81,1,8.3,7.3,8.1,9,14,5,s
183.25063,89,1,8.3,6.88237,8.009683,9,22,11,s
16989.86138,85,1,9.5,6.88237,8.5,12,33,111,l
800.357548,85,1,9.1,7.2,8.3,8.530885,29,14,s
360.703351,85,1,8.1,6.88237,8.3,9,45,10,m
17056.0688,85,1,9.5,6.88237,8.5,12,33,0,m
50.901601,85,3,7.5,6.9,7.2,9,10,5,m
108.721768,85,1,9.1,7.2,8.3,8.530885,29,18,l
9.614385,85,3,7.5,6.9,7.2,9,10,5,m
48.546128,83,3,7.5,6.88237,8.009683,9,20,1,m
47.414078,60,1,7.8,6.5,7.3,8.530885,20,10,l
17805.79702,85,1,8.3,6.88237,8.009683,9,22,34,s
2301.713277,85,1,9,6.88237,8.5,7,22,0,m
206.845726,88,1,7.6,5.4,7.7,8.530885,30,15,l
134.568294,85,1,9.1,7.2,8.3,8.530885,29,9,l
2107.644591,60,1,9.1,7,8.8,8.530885,30,3,m
4333.068891,85,1,8.7,7.7,7.8,6,30,91,s
4449.719278,80,3,9.2,6.88237,8.4,10,25,0,m
18.816001,82,1,7.1,6.4,7.1,8.530885,25,9,m
183.313977,89,1,8.3,6.88237,8.009683,9,22,13,s
125.236999,85,1,7,6.88237,7,8.530885,26.742663,0,s
926.583152,86,1,9.1,7.2,8.3,8.530885,29,29,s
944.265356,87,3,9.2,6.88237,8.4,10,25,10,s
267.068943,85,1,9.1,7.2,8.3,8.530885,29,10,m
262.425754,60,1,9.1,7,8.8,8.530885,30,12,l
253.360597,85,1,9.1,7.2,8.3,8.530885,29,7,m
93.904535,85,1,9.1,7.2,8.3,8.530885,29,8,l
7385.16075,81,1,8.8,7.2,8.5,9,22,25,m
260.463003,85,1,8.2,6.88237,8.009683,6,7,6,s
180.813622,89,1,8.3,6.88237,8.009683,9,22,0,l
100.420722,85,1,7.5,6.88237,8.009683,5,40,142,s
6306.76883,80,1,9.1,7.2,8.3,8.530885,29,8,m
96.759013,85,1,9.1,7.2,8.3,8.530885,29,7,m
69.698545,82,1,7.1,6.2,7.1,8.530885,32,0,s
854.408558,85,1,9.1,7.2,8.3,8.530885,29,10,m
7339.768792,88,1,8.2,6.88237,8.009683,6,7,0,s
3805.242828,80,3,8.6,6.88237,7.3,6,15,0,l
13848.04801,85,1,8.1,6.4,7.7,9,23,10,s
65.727625,85,3,7.5,6.9,7.2,9,10,12,m
2176.051837,82,1,7.9,6.88237,8.009683,8,95,12,s
4182.738942,80,1,7.7,6.5,7.5,8.530885,14,7,s
3642.272718,85,1,8.7,7.7,7.8,6,30,0,s
31.094032,80,3,7.7,6,7.2,9,2,0,l
266.068731,85,1,9.1,7.2,8.3,8.530885,29,6,m
90.552782,86,1,7.1,6.3,7.1,9,9,7,s
2290.793187,81,1,7.7,6.88237,8.009683,8.530885,37,2,s
213.188386,85,1,7.6,6.88237,7.3,8.530885,74,57,s
96.711865,85,1,9.1,7.2,8.3,8.530885,29,11,s
14959.3524,88,1,8.1,6.88237,8.009683,8.530885,48,0,s
10466.01929,81,1,9.1,7,8.8,8.530885,30,0,s
206.454161,81,1,8.1,7.1,8.1,8.530885,18,21,m
992.23524,85,1,9.1,7.2,8.3,8.530885,29,4,m
209.511074,89,1,8.8,8.2,8.6,9,20,78,s
149.111972,83,3,8.2,6.5,8.1,9,33,9,s
5396.544642,80,1,8,6.6,7.4,8.530885,33,5,s
5566.931676,60,1,9.1,7,8.8,8.530885,30,7,m
148.222207,85,1,9.1,7.2,8.3,8.530885,29,8,l
3656.504862,80,3,8.6,6.88237,7.3,6,15,0,m
3701.532337,88,3,9.2,6.88237,8.4,10,25,566,m
131.661613,85,1,6.9,6.4,6.9,8.530885,33,0,s
121.447002,85,1,9.1,7.2,8.3,8.530885,29,7,m
11566.66779,87,1,8.8,7.2,8.5,9,22,0,s
6308.445585,80,1,9.1,7.2,8.3,8.530885,29,0,s
3196.04455,85,1,7.6,6.88237,8.009683,7,32,46,s
2725.499726,85,1,9.1,7.2,8.3,8.530885,29,647,l
64.438099,83,3,7.5,6.88237,8.009683,9,20,23,l
12819.36632,89,1,7.6,6.4,7.3,8.530885,45,0,s
17006.63541,85,1,9.5,6.88237,8.5,12,33,31,m
5566.931676,60,1,9.1,7,8.8,8.530885,30,7,m
39.034333,83,3,7.8,6.88237,7.8,8.530885,26.742663,10,m
130.171836,85,1,9.1,7.2,8.3,8.530885,29,9,m
15046.98204,89,1,8.1,7.3,8.2,8.530885,10,0,s
56.873903,89,1,8,6.7,7.9,8,39,11,m
185.212243,85,1,7.4,6.88237,7.4,8.530885,60,55,m
7875.172447,81,1,9,6.88237,8.5,7,22,98,s
47.476351,89,1,8.8,7.2,8.5,9,22,20,l
7968.488981,81,3,8.6,6.88237,7.3,6,15,0,m
1016.555001,89,1,8.3,6.88237,8.009683,9,22,0,s
78.557298,85,1,8.1,6.88237,8,8.530885,30,6,m
541.93075,89,1,7.7,6.7,7.4,8,40,0,s
260.136693,60,1,9.1,7,8.8,8.530885,30,8,l
17.456581,85,3,7.5,6.9,7.2,9,10,8,m
14932.51382,89,1,8.8,7,8,8,35,20,s
1444.977386,81,1,8,6.88237,8,8.530885,26.742663,8,s
126.319679,85,1,9.1,7.2,8.3,8.530885,29,9,m
201.601278,81,1,8.1,7.1,8.1,8.530885,18,19,l
79.121465,85,1,9.1,7.2,8.3,8.530885,29,11,l
99.972132,85,1,7.2,6,7.2,8.530885,44,0,s
2696.893677,85,1,8.7,7.7,7.8,6,30,0,s
124.72802,85,1,9.1,7.2,8.3,8.530885,29,10,m
209.974905,85,1,8.3,6.9,8.1,8.530885,27,5,s
11897.85304,89,1,8.8,7,8,8,35,0,s
40.541312,81,1,7.4,6.88237,8.009683,7,55,8,s
3553.527725,80,1,8.6,6.88237,9.1,8.530885,33,22,m
6344.729796,80,1,9.1,7.2,8.3,8.530885,29,8,m
334.650247,85,1,9.1,7.2,8.3,8.530885,29,5,m
479.346891,85,1,9.1,7.2,8.3,8.530885,29,46,s
199.566713,85,1,6.9,6.88237,8.009683,8.530885,60,0,s
519.539846,85,1,7.1,6.4,6.9,8.530885,28,91,s
2020.666734,88,1,7.9,6.88237,8.009683,4,14,0,s
3043.233799,89,1,7,6.88237,8.009683,8.530885,17,0,s
97.983159,86,1,8.3,6.5,7.8,8.530885,10,14,l
134.836436,85,1,9.1,7.2,8.3,8.530885,29,6,m
3495.727004,80,3,8.6,6.88237,7.3,6,15,13,l
242.998623,89,1,7.5,5.8,6.6,4,10,29,m
430.616621,85,1,9.1,7.2,8.3,8.530885,29,5,m
8353.112594,88,1,8.7,7.7,7.8,6,30,0,s
194.949869,85,1,9.1,7.2,8.3,8.530885,29,20,l
9584.813181,81,1,9.1,7.2,8.3,8.530885,29,0,m
13666.33609,80,1,8.4,6.7,8.2,8,33,6,s
96.610215,85,1,9.1,7.2,8.3,8.530885,29,9,m
3795.385398,80,3,8.6,6.88237,7.3,6,15,135,l
10457.64595,81,1,8.3,6.88237,8.3,11,40,3,s
126.258476,60,1,8.4,6.9,8.5,8.530885,34,9,m
39.237125,82,3,7,5.8,7.1,8.530885,25,18,l
1656.864661,60,1,9.1,7,8.8,8.530885,30,7,m
880.225303,85,1,6.8,6.9,6.8,8.530885,15,6,s
134.589281,85,1,9.1,7.2,8.3,8.530885,29,6,m
796.140911,83,1,7.6,6.88237,8.009683,7,32,4,s
51.443294,88,1,7,6.88237,7,8,40,8,s
195.319032,81,1,8.1,7.1,8.1,8.530885,18,30,m
699.868236,89,1,8.8,7.2,8.5,9,22,0,s
5510.636314,80,1,8.3,6.88237,8.009683,10,40,0,s
145.753491,85,1,8.2,6.88237,8.009683,6,7,8,m
988.398286,81,1,7.7,6.9,7.7,3,20,5,s
149.340803,85,1,8.2,6.88237,8.2,8.530885,26.742663,9,l
64.019788,82,1,7.4,6.88237,7.6,7,55,493,m
2725.499726,88,1,9.1,7.2,8.3,8.530885,29,647,s
175.239655,89,1,8.1,6.4,7.7,9,23,15,m
1354.405188,85,1,8.3,7.3,8.1,9,14,6,s
276.664574,85,1,9.1,7.2,8.3,8.530885,29,7,l
8310.412448,88,1,8.3,6.88237,8.009683,9,22,13,s
17465.18342,85,1,9.5,6.88237,8.5,12,33,0,s
2725.499726,85,1,8.3,6.88237,8.1,8.530885,15,647,m
4967.332769,85,3,8.2,6.5,8.1,9,33,0,s
130.053166,85,1,9.1,7.2,8.3,8.530885,29,9,m
30.349767,50,1,7,6.88237,8.009683,8,21,7,m
5197.986396,80,1,7.9,6.88237,7.2,8.530885,28,0,s
632.190398,85,1,8.1,6.88237,8.3,9,45,0,s
14928.85895,88,1,8.1,6.88237,8.009683,8.530885,48,0,s
2522.086031,60,1,9.1,7,8.8,8.530885,30,9,m
130.14814,85,1,9.1,7.2,8.3,8.530885,29,10,m
238.025296,89,1,8.3,6.88237,8.009683,9,22,15,m
116.774914,85,1,8.1,6.88237,8.3,9,45,0,m
55.804195,85,1,7.4,6.88237,7.4,8.530885,26.742663,49,m
10488.5539,81,1,8.2,6.88237,8.009683,8,25,0,s
5087.778466,80,1,8.4,6.88237,8.009683,11,30,9,s
2216.809398,85,1,8.8,7,8,8,35,0,s
2492.691155,81,1,7.8,7.3,7.5,8.530885,83,0,s
551.077786,85,1,9.1,7.2,8.3,8.530885,29,23.263212,m
128.81841,85,1,9.1,7.2,8.3,8.530885,29,7,m
74.682122,50,1,6.6,6.88237,8.009683,7,17,2,s
83.396279,85,1,9.1,7.2,8.3,8.530885,29,53,s
367.133085,85,1,7.8,6.8,7.7,8,24,149,s
189.611759,81,1,8.1,7.1,8.1,8.530885,18,6,l
69.245994,83,3,7.5,6.88237,8.009683,9,20,11,m
10596.6715,80,1,8,6.7,7.8,8,40,11,s
219.707828,84,1,8,6.4,7.9,6,33,23,l
56.859237,85,1,8.3,6.9,8.1,8.530885,27,6,m
149.649292,85,1,8.3,6.88237,8.1,8.530885,15,27,m
553.577407,85,1,9.1,7.2,8.3,8.530885,29,10,s
5163.642775,88,1,8.3,6.5,7.8,8.530885,10,0,s
1508.685437,81,1,7.5,6.88237,8.009683,8.530885,10,0,s
78.675883,85,1,9.1,7.2,8.3,8.530885,29,10,l
700.708542,84,3,7.5,6.9,7.2,9,10,0,s
214.870032,50,3,7.7,6.88237,7.8,9,20,5,m
608.292918,89,1,8.8,7.2,8.5,9,22,8,l
7124.380876,88,1,8.3,6.88237,8.009683,10,40,0,s
262.134475,85,1,8.2,6.88237,8.009683,6,7,5,s
179.263048,89,1,8.3,6.88237,8.009683,9,22,10,m
5.097402,89,1,8.4,6.7,8.2,8,33,12,m
50.413402,60,1,7.8,6.5,7.3,8.530885,20,8,m
3147.566227,87,1,8.1,6.88237,8.3,9,45,8,s
17.470127,84,1,7.1,6.1,7.1,8.530885,32,8,m
59.44598,82,1,8.1,6.8,7.9,8.530885,24,20,m
646.454892,86,1,8.3,6.5,7.8,8.530885,10,27,s
101.928476,85,1,9.1,7.2,8.3,8.530885,29,7,s
120.664262,89,1,7.5,5.8,6.6,4,10,0,l
242.478715,85,1,8.2,6.88237,8.009683,6,7,5,s
342.835548,85,1,8.2,6.88237,8.009683,6,7,0,s
30.496851,50,3,7,6.88237,7.2,11,40,6,l
108.129523,85,1,9.1,7.2,8.3,8.530885,29,4,m
1735.838259,60,1,9.1,7,8.8,8.530885,30,11,m
133.838476,85,1,9.1,7.2,8.3,8.530885,29,13,l
17665.81982,85,1,9.5,6.88237,8.5,12,33,7,s
1451.73416,88,1,8,6.8,8.1,9,28,0,s
14073.07738,85,1,8.1,6.4,7.7,9,23,0,s
184.988064,89,1,8.2,6.88237,8.009683,8,25,9,m
291.706437,85,1,7.7,6.88237,7.7,8.530885,26.742663,84,s
1020.825414,85,0,8.30368,4.9,8.009683,8.530885,10,103,s
8782.161349,81,1,9.5,6.88237,8.5,12,33,61,m
183.818504,89,1,8.3,6.88237,8.009683,9,22,11,m
212.200389,85,1,9.1,7.2,8.3,8.530885,29,16,l
15195.3396,88,1,8.1,6.88237,8.009683,8.530885,48,0,s
165.106289,86,1,8.3,6.5,7.8,8.530885,10,0,l
6182.127641,81,1,9.1,7,8.8,8.530885,30,0,s
7.740407,83,1,6,6.88237,8.009683,8.530885,33,17,s
194.354269,85,1,9.1,7.2,8.3,8.530885,29,11,l
17063.02508,85,1,9.5,6.88237,8.5,12,33,0,s
176.290054,86,1,6.7,6.3,6.7,4,33,0,s
129.943521,85,1,9.1,7.2,8.3,8.530885,29,7,l
236.197851,85,1,9.1,7.2,8.3,8.530885,29,12,l
847.097813,87,1,8.8,7,8,8,35,23.263212,s
1648.450915,60,1,9.1,7,8.8,8.530885,30,9,l
653.851262,85,1,9.1,7.2,8.3,8.530885,29,11,m
251.925205,89,1,8.8,7.2,8.5,9,22,6,l
2663.579945,60,1,7.7,6.1,7.2,8.530885,20,6,s
10611.55716,80,1,9.5,6.88237,8.5,12,33,0,m
716.9978,85,1,8.2,6.88237,8.009683,6,7,7,s
56.529381,85,1,7.3,6.88237,8.009683,9,63,0,s
257.255029,60,1,9.1,7,8.8,8.530885,30,14,l
13214.50768,89,1,9.1,7.2,8.3,8.530885,29,0,s
6306.812408,80,1,9.1,7.2,8.3,8.530885,29,4,m
117.856631,85,1,9.1,7.2,8.3,8.530885,29,11,m
1299.738478,60,1,8.2,7.2,8.009683,8.530885,25,0,s
244.011542,85,1,9.1,7.2,8.3,8.530885,29,10,l
69.501477,83,3,7.5,6.88237,8.009683,9,20,11,l
4447.40804,80,3,9.2,6.88237,8.4,10,25,0,m
9199.72633,81,1,9.1,7,8.8,8.530885,30,0,s
7601.19732,81,1,9.1,7.2,8.3,8.530885,29,0,s
922.70506,84,1,7.8,6.8,7.7,8,24,4,s
3562.392803,80,1,8.6,6.88237,9.1,8.530885,33,5,m
5925.873776,60,1,9.1,7,8.8,8.530885,30,0,m
97.160838,89,1,8.8,7.2,8.5,9,22,17,l
350.806941,85,1,6.1,6.88237,8.009683,8.530885,10,0,s
97.338274,85,1,9.1,7.2,8.3,8.530885,29,6,m
3450.600084,80,1,8.30368,6.88237,8.009683,8.530885,26.742663,0,s
14340.64899,81,1,9.5,6.88237,8.5,12,33,0,s
125.478908,86,1,8.4,6.88237,8.3,11,15,0,l
4053.829874,81,1,7.6,7,7.6,8.530885,34,0,s
220.417533,85,1,9.1,7.2,8.3,8.530885,29,8,l
1516.09351,73,1,8.5,6.88237,8.009683,11,26.742663,41,m
261.414522,60,1,9.1,7,8.8,8.530885,30,7,l
139.934928,89,1,8.3,6.88237,8.009683,9,22,8,m
488.336542,85,1,6.6,5.8,6.4,8.530885,28,67,s
895.137747,86,1,9.1,7.2,8.3,8.530885,29,11,m
89.823471,85,1,7.7,6.6,7.6,8,17,0,l
1438.544955,85,1,7.5,6.5,7.5,4,11,0,s
6.043181,85,3,7.5,6.9,7.2,9,10,5,m
10710.51482,81,1,8.5,6.88237,8.5,11,25,80,l
249.744938,84,1,8,6.4,7.9,6,33,12,l
472.709104,85,1,9.1,7.2,8.3,8.530885,29,5,m
119.983669,85,1,9.1,7.2,8.3,8.530885,29,9,l
4711.175488,85,1,7.9,6.88237,7.9,9,47,7,s
51.844643,50,1,7,6.88237,8.009683,8,21,5,s
7797.112081,88,1,8.2,6.88237,8.009683,8,25,0,s
260.709781,60,1,9.1,7,8.8,8.530885,30,6,l
157.309393,85,1,7.2,6.88237,7.1,8.530885,25,0,s
7481.135144,87,1,7.9,6.4,7.4,8,24,0,s
135.72314,85,1,9.1,7.2,8.3,8.530885,29,17,l
133.699211,85,1,9.1,7.2,8.3,8.530885,29,0,l
168.630198,81,3,6.4,6.88237,6.8,8.530885,33,429,m
2139.44061,60,1,9.1,7,8.8,8.530885,30,0,m
10645.09725,80,1,9.5,6.88237,8.5,12,33,0,m
3949.425549,80,1,8.6,6.88237,9.1,8.530885,33,0,m
9316.669629,88,1,8,6.88237,8,8.530885,26.742663,5,s
314.350837,85,1,6.6,6.88237,8.009683,8.530885,60,91,s
18.130422,50,1,7,6.88237,8.009683,8,21,2,s
183.702436,89,1,8.3,6.88237,8.009683,9,22,0,s
410.981298,85,1,9.1,7.2,8.3,8.530885,29,7,m
94.881205,85,1,9.1,7.2,8.3,8.530885,29,7,l
495.884158,85,1,7.4,6.6,7.4,10,66,52,s
191.07738,85,1,9.1,7.2,8.3,8.530885,29,10,l
3600.974608,80,3,8.6,6.88237,7.3,6,15,31,m
5230.658848,60,1,8.6,7.2,8.4,8.530885,30,72,s
524.865554,85,1,9.1,7.2,8.3,8.530885,29,0,s
3296.914553,86,3,9.2,6.88237,8.4,10,25,12,s
54.762084,60,1,8.6,7.2,8.4,8.530885,30,0,m
11000.23758,80,1,9.5,6.88237,8.5,12,33,0,m
347.082043,89,1,8.3,6.88237,8.009683,9,22,42,s
199.325735,85,1,7,6.88237,8.009683,8.530885,80,19,s
17172.15764,85,1,9.5,6.88237,8.5,12,33,0,s
161.373805,86,1,8.3,6.5,7.8,8.530885,10,0,l
155.884518,85,1,7.8,6.8,7.7,8,24,0,s
6400.319614,81,1,9.1,7,8.8,8.530885,30,0,s
10882.08854,80,1,8.3,6.88237,8.009683,9,22,0,s
122.096312,88,1,7.3,6.88237,8.009683,8.530885,28,6,l
506.088899,85,0,8.30368,4.9,8.009683,8.530885,10,6,s
3.7019,88,1,7.7,6.5,7.5,8.530885,14,11,l
80.778917,85,1,8.3,6.9,8.1,8.530885,27,22,m
48.374223,83,3,7.5,6.88237,8.009683,9,20,15,m
3212.890665,80,1,8.2,6.88237,7.8,9,30,6,s
3645.670201,80,3,8.6,6.88237,7.3,6,15,0,l
118.478176,85,1,9.1,7.2,8.3,8.530885,29,7,l
201.822956,81,1,8.1,7.1,8.1,8.530885,18,19,l
115.537681,85,1,9.1,7.2,8.3,8.530885,29,9,l
42.921002,85,1,7.5,6.88237,8.009683,5,40,10,m
16990.73744,85,1,9.5,6.88237,8.5,12,33,0,m
1194.906919,81,1,7.8,6.88237,7.8,7,26.742663,0,s
165.901927,85,3,7.5,6.9,7.2,9,10,0,s
345.141987,83,3,7.8,6.5,7.5,11,28,0,l
2147.360576,85,1,9,6.88237,8.5,7,22,8,m
126.51014,85,1,9.1,7.2,8.3,8.530885,29,10,m
265.251384,60,1,9.1,7,8.8,8.530885,30,6,l
14284.63714,85,1,8.1,6.4,7.7,9,23,7,s
380.912612,85,1,9.1,7.2,8.3,8.530885,29,0,m
468.308387,88,1,7.2,6.3,7.1,8,15,0,s
11868.14715,80,1,9.1,7,8.8,8.530885,30,11,s
126.757362,85,1,9.1,7.2,8.3,8.530885,29,7,m
8527.159975,88,1,8.3,6.88237,8.3,8.530885,26.742663,0,s
968.801766,82,1,7.4,6.88237,8.009683,8.530885,39,0,s
8678.845893,81,1,8.8,7.2,8.5,9,22,23.263212,s
4424.589364,85,1,8,6.4,7.7,6,19,0,s
119.980481,88,1,7.3,6.88237,8.009683,8.530885,28,6,m
58.149582,85,1,8.2,6.88237,8.2,8.530885,26.742663,0,l
1470.362221,73,1,7.8,6.88237,7.3,7,22,56,s
2498.523145,60,1,9.1,7,8.8,8.530885,30,0,m
17190.51859,85,1,8.2,6.88237,8.009683,8,25,166,s
28.742668,82,1,8.1,6.8,7.9,8.530885,24,0,s
7813.026071,88,1,8.1,7.1,8.1,8.530885,18,23.263212,s
383.622611,85,1,6.9,6.88237,8.009683,8,9,81,s
171.730036,85,1,7.5,6.88237,7.5,9,10,82,m
122.635182,88,1,7.3,6.88237,8.009683,8.530885,28,12,m
214.050129,81,1,8.1,7.1,8.1,8.530885,18,26,m
7405.983254,88,1,8.3,6.5,7.8,8.530885,10,0,s
559.462958,85,1,7.4,6.6,7.4,10,66,69,s
164.420133,85,1,8.2,6.88237,8.009683,6,7,0,m
46.169893,82,1,8.1,6.8,7.9,8.530885,24,18,m
88.805583,85,1,9.1,7.2,8.3,8.530885,29,7,m
51.656758,83,1,6.9,6,6.5,8.530885,17,56,m
132.712614,85,1,9.1,7.2,8.3,8.530885,29,7,l
3827.279458,80,3,8.6,6.88237,7.3,6,15,0,l
4772.653796,85,3,9.2,6.88237,8.4,10,25,16,s
6315.447205,88,1,8.3,7.3,8.1,9,14,12,s
2725.499726,85,1,7.9,6.88237,7.9,8.530885,35,647,m
36.952287,89,1,8.3,6.88237,8.009683,9,22,22,m
123.727387,85,1,8.1,6.88237,8,8.530885,30,0,m
14925.85388,85,1,8.1,6.4,7.7,9,23,0,s
4998.639526,80,1,7.8,6.3,7.6,7,33,18,s
7934.844923,88,1,9.1,7.2,8.3,8.530885,29,18,s
192.148785,85,1,7.2,6.2,6.8,8.530885,37,7,s
24.067872,50,1,7,6.88237,8.009683,8,21,4,m
100.929365,85,3,7.5,6.9,7.2,9,10,10,m
55.994131,83,3,7.5,6.88237,8.009683,9,20,13,m
102.718999,89,1,7.3,6.88237,7.3,8.530885,60,10,s
9773.331927,89,1,7.6,7,7.6,8.530885,34,0,s
136.469519,85,1,9.1,7.2,8.3,8.530885,29,14,l
9991.540434,81,1,8.1,6.6,7.6,9,13,0,s
971.700884,85,0,8.30368,4.9,8.009683,8.530885,10,340,s
6089.569333,85,1,7.7,6.4,7.9,8.530885,33,67,s
131.591484,85,1,9.1,7.2,8.3,8.530885,29,7,m
13169.06559,89,1,9.1,7.2,8.3,8.530885,29,0,m
93.569831,85,1,9.1,7.2,8.3,8.530885,29,16,l
195.759437,89,1,8,6.6,7.3,7,46,5,s
3854.259565,80,3,8.6,6.88237,7.3,6,15,89,s
297.101453,88,1,7.5,6.5,7.6,8,24,0,s
17.51211,84,1,7.4,6.88237,8.009683,8.530885,34,0,s
181.427504,89,1,8.3,6.88237,8.009683,9,22,13,s
2335.627529,81,1,7.5,6.4,7.3,8.530885,33,3,s
11486.2401,81,1,9.5,6.88237,8.5,12,33,0,s
17666.7681,85,1,9.5,6.88237,8.5,12,33,22,m
187.26229,81,1,8.1,7.1,8.1,8.530885,18,9,l
139.547833,85,1,7,6.88237,7,8.530885,34,0,s
93.72396,74,3,7,6.8,7.3,8.530885,13,5,m
200.500443,85,1,7.8,6.8,7.7,8,24,0,m
254.927683,85,1,9.1,7.2,8.3,8.530885,29,6,l
14.764739,89,1,8.2,6.88237,8.2,11,26.742663,39,l
40.240215,82,1,7.1,6.4,7.1,8.530885,25,9,s
5388.332057,88,1,8.2,6.88237,8.009683,8,25,0,s
5860.555387,88,1,8.4,6.7,8.2,8,33,0,s
83.271377,85,1,8.3,6.9,8.1,8.530885,27,5,m
52.067729,74,1,7.6,6.3,7.4,10,10,25,s
95.956923,85,1,9.1,7.2,8.3,8.530885,29,9,s
95.433075,85,1,7.5,6.88237,7.5,7,30,0,s
94.29259,85,1,9.1,7.2,8.3,8.530885,29,6,l
6548.091887,85,1,7.7,6.4,7.9,8.530885,33,0,s
1222.09817,60,1,9.1,7,8.8,8.530885,30,13,m
122.783285,85,1,9.1,7.2,8.3,8.530885,29,9,l
7817.516717,88,1,8.3,6.88237,7.6,8.530885,26.742663,10,m
13136.39149,89,1,7.9,6.4,7.4,8,24,8,s
534.387841,85,1,7.7,6.6,7.6,8,17,0,m
16238.76892,89,1,9.1,7,8.8,8.530885,30,0,s
3535.7652,80,1,8.6,6.88237,9.1,8.530885,33,0,l
282.375941,85,1,9.1,7.2,8.3,8.530885,29,12,l
16970.90329,85,1,9.5,6.88237,8.5,12,33,10,s
3483.80874,80,3,8.6,6.88237,7.3,6,15,0,l
1303.097085,82,1,7.1,6.4,7.1,8.530885,25,0,s
181.452009,89,1,8.3,6.88237,8.009683,9,22,12,s
207.264526,85,1,7.1,6.88237,8.009683,8.530885,26.742663,5,s
3690.724804,85,1,8.8,7,8,8,35,4,s
2725.499726,60,1,9.1,7,8.8,8.530885,30,647,m
113.26354,60,1,9.1,7,8.8,8.530885,30,0,m
47.259168,85,3,7.5,6.9,7.2,9,10,5,m
10689.40612,80,1,9.5,6.88237,8.5,12,33,12,m
45.454173,85,1,7.9,6.88237,7.9,8.530885,35,360,l
60.755124,82,1,8.1,6.8,7.9,8.530885,24,18,l
59.893054,83,3,6.8,6.88237,6.8,8.530885,40,76,l
116.45769,88,1,7.3,6.88237,8.009683,8.530885,28,4,l
498.38814,85,1,9.1,7.2,8.3,8.530885,29,9,m
309.008658,85,1,8.1,6.88237,8.3,9,45,146,s
879.459628,50,1,6.8,6.5,6.9,10,12,3,s
252.286195,85,1,8.2,6.88237,8.009683,6,7,0,s
6863.161813,81,3,9.2,6.88237,8.4,10,25,0,s
6227.075057,81,1,8,6.7,7.9,8,39,0,s
96.334943,85,1,9.1,7.2,8.3,8.530885,29,0,m
10837.08454,80,1,9.5,6.88237,8.5,12,33,0,m
101.963688,85,1,9.1,7.2,8.3,8.530885,29,7,m
268.015245,85,1,8.4,6.88237,8.5,8.530885,15,0,l
153.813224,85,1,9.1,7.2,8.3,8.530885,29,19,l
664.923425,60,1,9.1,7,8.8,8.530885,30,8,m
200.296966,85,1,9.1,7.2,8.3,8.530885,29,10,m
68.704173,86,1,9,6.88237,8.5,7,22,11,l
1.395288,89,1,7.5,6.88237,7.5,8,30,119,m
334.320667,73,1,7.8,6.88237,7.3,7,22,5,s
129.715359,85,1,9.1,7.2,8.3,8.530885,29,7,m
6239.158267,80,1,9.1,7.2,8.3,8.530885,29,12,m
190.687198,60,1,8.6,7.2,8.4,8.530885,30,4,s
491.795159,85,1,9.1,7.2,8.3,8.530885,29,10,s
6146.451061,60,1,9.1,7,8.8,8.530885,30,0,m
13301.95812,89,1,9.1,7.2,8.3,8.530885,29,0,m
5291.860001,88,1,8.8,8.2,8.6,9,20,5,s
110.97899,85,1,9.1,7.2,8.3,8.530885,29,11,s
11190.63198,88,1,9.5,6.88237,8.5,12,33,142,s
148.570673,85,1,7.8,6.8,7.7,8,24,0,s
431.59652,85,1,7.7,6.6,7.6,8,17,15,s
182.353333,89,1,8.3,6.88237,8.009683,9,22,12,m
7792.974162,88,1,8.3,7.3,8.1,9,14,0,s
803.427485,85,3,7.5,6.9,7.2,9,10,17,s
3711.204439,89,1,8.8,7.2,8.5,9,22,0,s
116.227606,89,1,8.8,7.2,8.5,9,22,0,m
75.001464,85,1,8.3,6.9,8.1,8.530885,27,9,m
3806.057197,80,3,8.6,6.88237,7.3,6,15,9,l
6126.692196,89,1,8.2,6.88237,8.009683,9,47,0,s
2498.773249,60,1,9.1,7,8.8,8.530885,30,7,m
120.302069,85,1,9.1,7.2,8.3,8.530885,29,11,m
2955.832113,88,3,8.6,6.88237,7.3,6,15,6,m
4836.706013,80,1,7.9,6.3,7.9,6,48,0,s
1845.688698,60,1,9.1,7,8.8,8.530885,30,7,m
3682.024685,80,1,8.6,6.88237,9.1,8.530885,33,12,m
114.412921,85,1,9.1,7.2,8.3,8.530885,29,8,s
923.214536,81,1,7.2,6.88237,8.009683,8.530885,34,3,s
451.569728,85,1,9.1,7.2,8.3,8.530885,29,5,m
615.580111,85,1,9.1,7.2,8.3,8.530885,29,0,m
6244.638631,80,1,8.2,6.88237,8.009683,6,7,11,s
106.579013,85,1,9.1,7.2,8.3,8.530885,29,7,l
11.865135,50,1,6.6,6.88237,8.009683,7,7,5,s
4780.274525,85,1,7.9,6.88237,7.9,9,47,0,s
118.416861,85,1,9.1,7.2,8.3,8.530885,29,14,m
113.423789,85,1,9.1,7.2,8.3,8.530885,29,9,l
507.081086,85,1,7.7,6.5,7.7,8,48,0,s
44.681163,82,1,8.1,6.8,7.9,8.530885,24,7,m
118.140539,85,1,9.1,7.2,8.3,8.530885,29,9,l
9969.714944,88,1,7.9,6.4,7.4,8,24,0,s
39.099846,82,1,8.1,6.8,7.9,8.530885,24,7,m
46.489567,60,1,7.8,6.5,7.3,8.530885,20,12,s
290.471722,82,1,8,6,8.2,8.530885,17,42,m
43.034711,50,1,6.7,6.88237,6.7,10,26.742663,12,m
14.544683,84,1,7.1,6.1,7.1,8.530885,32,0,m
10543.1687,81,1,8.5,6.88237,8.5,11,25,106,s
10659.84964,81,1,8,6.7,7.9,8,39,7,s
7609.256604,88,1,8.3,6.88237,8.009683,10,40,7,s
307.302339,85,1,7.3,6.4,7.3,8.530885,32,26,s
283.471338,85,1,7.8,6.4,7.5,9,27,6,s
1027.058703,85,1,8.5,7.7,8.1,9,13,0,s
147.960746,85,1,8.2,6.88237,8.009683,6,7,0,m
475.338548,85,1,9.1,7.2,8.3,8.530885,29,16,m
98.56747,85,1,8.3,6.9,8.1,8.530885,27,9,m
16905.56876,85,1,8.4,6.7,8.2,8,33,91,s
497.959502,85,1,7.6,6.5,7.6,6,33,0,s
195.412059,81,1,8.1,7.1,8.1,8.530885,18,0,m
3803.650063,80,3,8.6,6.88237,7.3,6,15,0,m
37.671676,82,1,7.9,6.6,7.9,8,49,0,s
159.987201,89,1,7.5,5.8,6.6,4,10,9,m
34.509942,50,3,7.7,6.88237,7.8,9,20,71,m
16.67207,50,1,7,6.88237,8.009683,8,21,4,m
3945.86107,80,1,8.6,6.88237,9.1,8.530885,33,135,l
15799.27416,85,1,8.4,6.7,8.2,8,33,0,s
4610.733096,85,3,8.2,6.5,8.1,9,33,0,s
1962.33428,60,1,9.1,7,8.8,8.530885,30,8,m
151.653995,60,1,9.1,7,8.8,8.530885,30,8,l
218.051913,85,1,7.7,6.88237,7.7,8.530885,26.742663,0,m
14351.30189,89,1,8.8,7,8,8,35,13,s
422.467467,85,1,7.1,6.4,6.9,8.530885,28,0,s
10836.11135,80,1,9.5,6.88237,8.5,12,33,0,m
16988.629,85,1,9.5,6.88237,8.5,12,33,80,m
153.022039,85,1,9.1,7.2,8.3,8.530885,29,0,l
3875.886257,80,1,8.6,6.88237,9.1,8.530885,33,0,m
120.325866,85,1,9.1,7.2,8.3,8.530885,29,8,l
121.685984,85,1,9.1,7.2,8.3,8.530885,29,7,m
17173.51039,85,1,9.5,6.88237,8.5,12,33,0,m
44.709275,82,1,8.1,6.8,7.9,8.530885,24,16,m
134.400763,85,1,8.3,6.9,8.1,8.530885,27,6,s
17323.59988,85,1,9.5,6.88237,8.5,12,33,0,l
9699.203774,89,1,8.1,6.88237,8.009683,9,19,15,s
216.307773,85,1,9.1,7.2,8.3,8.530885,29,9,l
3833.572902,88,1,7.5,6.5,7.6,8,24,0,s
9545.390157,81,1,9.1,7.2,8.3,8.530885,29,38,m
17868.41605,85,1,8.3,6.88237,8.009683,9,22,0,s
126.687038,85,1,7.5,6.88237,7.5,8.530885,20,8,s
48.226852,83,1,6.6,6.4,6.6,6,33,190,s
2210.139157,60,1,8.6,7.4,8.5,8.530885,20,10,s
229.653659,85,1,7.2,6.7,7,8.530885,14,95,s
1828.961041,60,1,9.1,7,8.8,8.530885,30,5,s
15564.49499,89,1,9,6.88237,8.5,7,22,0,m
37.258977,89,1,8.3,6.88237,8.009683,9,22,7,l
16977.463,85,1,9.5,6.88237,8.5,12,33,26,m
1771.661647,81,1,7.7,6.88237,8.009683,7,10,23.263212,s
14996.56416,85,1,8.1,6.88237,7.5,9,38,45,s
306.197376,85,1,9.1,7.2,8.3,8.530885,29,9,s
69.569117,83,3,7.5,6.88237,8.009683,9,20,10,m
107.395472,85,1,7.7,6.6,7.6,8,17,0,m
4062.484533,81,1,7.6,7,7.6,8.530885,34,0,s
209.541877,85,1,6.6,5.8,6.4,8.530885,28,100,s
1623.960378,60,1,9.1,7,8.8,8.530885,30,13,m
88.311912,85,1,9.1,7.2,8.3,8.530885,29,20,l
11.713067,87,3,7.8,6.88237,7.9,11,35,26,s
9057.896172,81,1,9.1,7,8.8,8.530885,30,24,s
20.597901,85,1,7.9,6.88237,7.9,8.530885,35,10,m
185.278123,89,1,8.3,6.88237,8.009683,9,22,7,m
17021.71842,85,1,9.5,6.88237,8.5,12,33,5,m
337.503619,85,1,7.5,6.88237,7.5,8.530885,0,0,s
170.221849,88,1,8.1,6.88237,8.2,10,35,9,l
161.731441,85,1,8.2,6.88237,8.009683,6,7,57,m
120.031612,85,1,9.1,7.2,8.3,8.530885,29,11,s
234.332146,60,3,8,7.7,8,10,15,6,m
18102.31147,84,1,9.5,6.88237,8.5,12,33,9,s
200.833518,88,1,7.6,5.4,7.7,8.530885,30,7,l
151.561335,85,1,9.1,7.2,8.3,8.530885,29,16,l
181.893346,89,1,8.3,6.88237,8.009683,9,22,0,m
55.975559,85,1,6.2,5.8,6.2,8,15,0,s
149.776038,85,1,9.1,7.2,8.3,8.530885,29,19,l
108.359856,85,1,9.1,7.2,8.3,8.530885,29,4,m
68.428415,82,1,7.6,6.5,7.8,8.530885,13,9,m
82.368906,85,1,7.8,6.8,7.7,8,24,5,l
55.216448,85,1,8.1,6.88237,8.3,9,45,0,m
219.724745,86,1,7.5,6.88237,8.009683,6,57,7,s
712.061014,85,1,7.8,6.8,7.7,8,24,0,s
49.443851,82,1,8.1,6.8,7.9,8.530885,24,21,l
10608.22859,88,1,9.5,6.88237,8.5,12,33,9,s
183.208413,89,1,8.3,6.88237,8.009683,9,22,10,s
6137.55087,80,1,9.1,7.2,8.3,8.530885,29,0,m
69.642779,83,3,7.5,6.88237,8.009683,9,20,12,m
17070.41029,85,1,9.5,6.88237,8.5,12,33,0,m
82.442502,85,1,9.1,7.2,8.3,8.530885,29,18,l
6385.379164,60,1,9.1,7,8.8,8.530885,30,18,m
429.084419,85,1,8.1,6.88237,8.3,9,45,37,m
47.043372,74,1,7.3,6.88237,8.009683,10,33,6,m
1807.945512,60,1,9.1,7,8.8,8.530885,30,10,m
94.275153,89,1,8.2,6.88237,8.009683,8,25,14,m
121.552418,85,1,9.1,7.2,8.3,8.530885,29,7,l
128.167151,85,1,9.1,7.2,8.3,8.530885,29,7,m
562.040334,85,1,7.6,6.1,8,8.530885,48,12,s
3805.038128,85,3,8.2,6.5,8.1,9,33,0,s
3482.638034,80,3,8.6,6.88237,7.3,6,15,0,l
5302.310934,60,1,8.4,6.9,8.5,8.530885,34,2,s
135.204154,85,1,9.1,7.2,8.3,8.530885,29,12,l
749.067545,81,1,8,7.2,7.8,7,55,0,s
109.223039,86,1,8.3,6.5,7.8,8.530885,10,0,l
620.912973,85,1,6.9,6.7,6.9,8.530885,10,31,s
167.909915,85,1,7,6.88237,7,8.530885,34,13,s
303.051077,81,1,8.1,7.1,8.1,8.530885,18,12,l
8071.871518,88,1,8.8,7,8,8,35,0,s
169.265737,50,3,7,6.88237,7.2,11,40,0,m
4558.373351,60,1,9.1,7,8.8,8.530885,30,13,m
13310.43166,89,1,9.1,7.2,8.3,8.530885,29,0,m
44.209892,85,1,8.3,6.88237,8.1,8.530885,15,61,m
94.447071,85,1,7,6.88237,8.009683,8.530885,60,6,s
2298.295214,88,1,8.2,8.2,8.3,6,25,12,s
710.06622,85,1,8.3,6.5,7.8,8.530885,10,0,s
134.894995,85,1,9.1,7.2,8.3,8.530885,29,10,l
1252.123859,89,1,9.5,6.88237,8.5,12,33,0,m
644.316825,60,1,9.1,7,8.8,8.530885,30,7,l
450.107083,85,1,7.4,6.2,7.1,8.530885,10,0,s
1093.989154,50,1,7.8,6.7,7.9,6,33,0,s
1735.899643,60,1,9.1,7,8.8,8.530885,30,0,m
195.112789,88,1,7,6.6,7,6,10,0,s
464.748738,85,1,8.4,6.88237,8.5,8.530885,15,0,s
44.715436,83,3,7.5,6.88237,8.009683,9,20,5,s
707.478625,85,1,6.9,6.88237,8.009683,8,9,3,s
14265.6563,89,1,8.8,7,8,8,35,0,s
1113.391073,81,1,8.1,6.88237,8.009683,9,19,13,s
10496.84708,81,1,8.2,6.88237,8.009683,8,25,0,s
166.524496,85,1,6.5,6.88237,8.009683,5,20,69,s
16149.10546,85,1,8.4,6.7,8.2,8,33,100,s
1082.5896,87,1,7.9,6.7,7.6,6,10,23.263212,s
17303.57802,85,1,8.3,6.88237,8.3,11,40,602,m
51.12183,85,3,7.5,6.9,7.2,9,10,6,l
17493.85448,85,1,9.5,6.88237,8.5,12,33,111,s
5000.374549,60,1,9.1,7,8.8,8.530885,30,11,m
72.727869,60,1,7.8,6.5,7.3,8.530885,20,16,l
258.820473,60,1,9.1,7,8.8,8.530885,30,9,l
231.788173,82,1,7.6,6.88237,7.6,8,45,17,s
3633.807029,80,3,8.6,6.88237,7.3,6,15,22,s
1274.114428,85,1,8.2,6.88237,8.009683,6,7,0,s
8481.810957,80,1,8.8,8.2,8.6,9,20,11,m
268.956426,89,1,9.5,6.88237,8.5,12,33,0,l
14473.39702,89,1,8.2,6.88237,7.8,9,30,0,s
7970.703152,81,1,7.7,6.5,7.5,8.530885,14,5,s
2192.067632,60,1,9.1,7,8.8,8.530885,30,15,m
104.760507,85,1,9.1,7.2,8.3,8.530885,29,8,m
10654.47542,80,1,9.5,6.88237,8.5,12,33,138,m
5931.588165,80,1,9.1,7.2,8.3,8.530885,29,16,l
45.49297,85,1,7.4,6.88237,7.4,8.530885,26.742663,11,m
10804.91631,80,1,9.5,6.88237,8.5,12,33,0,m
182.499092,89,1,8.3,6.88237,8.009683,9,22,15,s
107.522576,85,1,9.1,7.2,8.3,8.530885,29,5,m
136.136474,85,1,9.1,7.2,8.3,8.530885,29,17,l
103.175514,85,1,9.1,7.2,8.3,8.530885,29,7,m
231.455141,60,1,9.1,7,8.8,8.530885,30,4,m
66.52038,89,1,6.7,6.88237,8.009683,7,20,13,s
114.002118,85,1,9.1,7.2,8.3,8.530885,29,11,l
4565.985182,80,3,9.2,6.88237,8.4,10,25,0,m
423.348525,85,1,9.1,7.2,8.3,8.530885,29,3,m
420.561574,85,1,7,6.88237,7,8.530885,34,72,s
130.265071,85,1,6.9,6.4,6.9,8.530885,33,0,s
79.165387,60,1,7.8,6.5,7.3,8.530885,20,6,m
181.549419,89,1,8.3,6.88237,8.009683,9,22,19,m
208.973487,85,1,8.2,6.88237,8.009683,6,7,186,m
433.794769,85,1,8.3,6.88237,8.3,8.530885,26.742663,0,m
839.285634,85,0,8.30368,4.9,8.009683,8.530885,10,0,s
38.859224,60,1,7.8,6.5,7.3,8.530885,20,9,s
15.941502,85,1,7.9,6.88237,7.9,8.530885,35,8,s
259.481326,60,1,9.1,7,8.8,8.530885,30,11,l
122.805813,85,1,9.1,7.2,8.3,8.530885,29,8,s
1647.288484,60,1,9.1,7,8.8,8.530885,30,11,s
389.961341,85,1,7.3,6.4,7.3,8.530885,32,0,s
128.771253,50,3,7.7,6.88237,7.8,9,20,8,m
264.47373,60,1,9.1,7,8.8,8.530885,30,7,l
3070.662484,60,1,9.1,7,8.8,8.530885,30,0,m
259.967273,60,1,9.1,7,8.8,8.530885,30,7,l
181.576554,89,1,8.3,6.88237,8.009683,9,22,16,m
50.811317,85,3,7.5,6.9,7.2,9,10,6,m
15114.86074,85,1,8.1,6.88237,7.5,9,38,0,s
181.757516,89,1,8.3,6.88237,8.009683,9,22,20,l
53.171084,85,1,6.6,6.2,6.6,5,14,7,s
47.132616,89,1,8.3,6.88237,8.009683,9,22,20,l
277.659256,60,1,7.7,6.1,7.2,8.530885,20,11,m
2015.388287,60,1,9.1,7,8.8,8.530885,30,11,l
314.257669,89,1,7.6,6.88237,8.009683,7,38,0,s
4723.043758,85,1,8,6.4,7.7,6,19,0,s
267.055706,85,1,7.2,6.88237,8.009683,8.530885,10,0,s
16990.18136,85,1,9.5,6.88237,8.5,12,33,74,m
55.350809,50,1,7,6.88237,8.009683,8,21,14,s
289.762951,85,1,8.4,6.88237,8.5,8.530885,15,0,s
816.180734,81,1,8,7.2,7.8,7,55,0,s
356.588403,60,1,9.1,7,8.8,8.530885,30,4,s
2036.592123,60,1,9.1,7,8.8,8.530885,30,6,m
1256.776098,85,0,8.30368,4.9,8.009683,8.530885,10,87,s
748.90781,85,1,7.8,6.8,7.7,8,24,0,s
83.149012,85,1,9.1,7.2,8.3,8.530885,29,12,l
45.110302,82,1,8.1,6.8,7.9,8.530885,24,12,m
1597.113312,82,1,7.1,6.5,7,8.530885,34,0,s
9787.101162,81,1,8.5,6.88237,8.3,11,70,0,s
546.180913,85,1,7.7,6.6,7.6,8,17,0,s
98.135981,82,1,8.1,6.8,7.9,8.530885,24,9,m
201.923652,81,1,8.1,7.1,8.1,8.530885,18,15,m
745.06956,85,1,9.1,7.2,8.3,8.530885,29,9,s
130.67283,87,1,7.8,6.88237,8.009683,8,28,15,s
16750.51076,85,1,9.5,6.88237,8.5,12,33,21,m
496.008542,85,1,7.5,6.88237,8.009683,5,40,9,s
74.264848,60,1,7.8,6.5,7.3,8.530885,20,8,m
22.737657,85,3,7.5,6.9,7.2,9,10,13,s
146.925317,85,1,9.1,7.2,8.3,8.530885,29,13,l
233.098093,85,1,9.1,7.2,8.3,8.530885,29,12,l
380.617649,85,1,9.1,7.2,8.3,8.530885,29,0,s
1956.167988,85,1,9,6.88237,8.5,7,22,0,m
261.561444,85,1,8.1,6.88237,8.3,9,45,7,s
186.043224,81,1,8.1,7.1,8.1,8.530885,18,6,l
45.215783,89,1,8,6.7,7.9,8,39,16,m
45.823342,89,1,8.8,7.2,8.5,9,22,7,l
197.960749,85,1,9.1,7.2,8.3,8.530885,29,5,m
231.456179,60,1,9.1,7,8.8,8.530885,30,6,m
38.336207,89,1,8.8,7.2,8.5,9,22,43,l
176.503389,85,1,9.1,7.2,8.3,8.530885,29,10,l
236.09429,86,1,7,6.88237,8.009683,8.530885,29,27,s
6084.797614,80,1,8.8,7.2,8.5,9,22,23.263212,s
6552.610098,81,1,9.1,7.2,8.3,8.530885,29,0,s
68.456605,83,3,7.5,6.88237,8.009683,9,20,11,m
4056.506249,80,1,7.9,6.88237,8.009683,4,14,11,s
2454.723648,88,3,9.2,6.88237,8.4,10,25,0,m
171.678455,81,3,7.2,6.6,7.5,8.530885,28,0,s
167.561032,85,1,7.5,6.88237,7.5,9,10,45,m
182.960751,89,1,8.3,6.88237,8.009683,9,22,19,m
93.469725,85,1,9.1,7.2,8.3,8.530885,29,4,m
26.122142,84,1,6.6,6.2,6.6,7,26,67,m
2725.499726,85,1,7.5,6.88237,8.009683,5,40,647,s
895.618438,60,1,9.1,7,8.8,8.530885,30,0,l
60.757179,82,1,8.1,6.8,7.9,8.530885,24,18,l
902.315382,85,1,7.4,6.3,7.2,10,56,0,s
7629.217445,85,1,8.1,6.88237,8.009683,9,19,0,s
134.927043,85,3,7.5,6.9,7.2,9,10,39,s
182.322007,89,1,8.3,6.88237,8.009683,9,22,5,m
127.596414,85,1,9.1,7.2,8.3,8.530885,29,7,m
1310.682059,85,1,7.7,6.5,7.7,8,48,67,s
2725.499726,89,1,8.2,6.88237,8.4,11,25,647,s
3314.3565,84,3,8.2,6.5,8.1,9,33,12,s
63.572656,85,3,7.5,6.9,7.2,9,10,7,m
40.217526,89,1,8,6.7,7.9,8,39,17,m
6273.117436,60,1,8.6,7.2,8.4,8.530885,30,4,s
158.818561,74,1,7.3,6.88237,8.009683,10,33,395,l
9549.95363,81,1,9.1,7.2,8.3,8.530885,29,6,m
14528.4151,88,1,9.1,7,8.8,8.530885,30,0,s
15.651387,50,1,7.3,6.88237,7.1,10,60,13,l
1971.740514,89,1,8.8,7.2,8.5,9,22,8,s
91.212923,85,1,9.1,7.2,8.3,8.530885,29,9,l
232.072218,85,1,8.2,6.88237,8.009683,6,7,215,s
5989.061678,88,1,9,6.88237,8.5,7,22,0,s
98.56747,85,1,8.3,6.9,8.1,8.530885,27,9,m
266.731028,85,1,6.7,6.88237,8.009683,8.530885,10,26,s
136.49174,85,1,8.3,6.88237,8.1,8.530885,15,0,m
712.272463,85,1,8.4,6.88237,8.5,8.530885,15,0,s
206.357487,81,1,8.1,7.1,8.1,8.530885,18,22,m
118.48383,88,1,7.6,5.4,7.7,8.530885,30,8,m
3563.435767,80,1,8.6,6.88237,9.1,8.530885,33,5,m
403.286822,60,3,8,7.7,8,10,15,4,s
9187.685168,81,1,8.8,7.2,8.5,9,22,0,s
11427.72195,88,1,8.8,7.2,8.5,9,22,0,s
62.23433,82,1,7,6.4,7.1,8.530885,28,0,s
98.636874,86,1,8.3,6.5,7.8,8.530885,10,0,l
12765.795,87,1,8.8,7.2,8.5,9,22,0,s
72.330673,85,1,8.3,6.9,8.1,8.530885,27,5,m
205.99906,85,1,9.1,7.2,8.3,8.530885,29,8,m
78.472396,85,1,8.3,6.88237,8.1,8.530885,15,7,m
192.772566,85,1,9.1,7.2,8.3,8.530885,29,10,l
479.428688,81,1,7.8,6.5,7.7,8.530885,12,23.263212,s
14961.89032,89,1,9,6.88237,8.5,7,22,0,m
18.992643,81,1,8,6.88237,8,8.530885,33,74,m
7795.54397,88,1,8.1,7.1,8.1,8.530885,18,33,s
8542.985263,81,1,9.1,7.2,8.3,8.530885,29,8,s
13169.06559,89,1,9.1,7.2,8.3,8.530885,29,0,m
89.115395,85,1,9.1,7.2,8.3,8.530885,29,11,s
103.065387,85,1,9.1,7.2,8.3,8.530885,29,10,l
252.13195,85,1,9.1,7.2,8.3,8.530885,29,9,l
90.51308,85,1,7.8,6.8,7.7,8,24,7,s
2888.390341,85,1,8.8,7,8,8,35,15,s
580.111685,87,1,7.9,6.6,7.6,6,33,68,s
181.458206,89,1,8.3,6.88237,8.009683,9,22,20,s
1727.017799,60,1,9.1,7,8.8,8.530885,30,0,l
222.887508,85,1,6.6,6.88237,8.009683,8.530885,60,0,s
125.350587,85,1,9.1,7.2,8.3,8.530885,29,10,m
657.225302,81,1,8.1,7.1,8.1,8.530885,18,4,m
323.956715,85,1,7.1,6.88237,7,8.530885,48,0,s
134.734136,85,1,9.1,7.2,8.3,8.530885,29,8,m
9005.446867,88,1,8.8,7,8,8,35,0,s
127.676618,85,1,9.1,7.2,8.3,8.530885,29,11,l
852.172885,81,1,7.4,6.88237,8.009683,8.530885,10,8,s
12402.56741,89,1,8.6,6.88237,9.1,8.530885,33,9,s
4436.304368,80,3,9.2,6.88237,8.4,10,25,0,m
8750.929502,88,1,7.2,7.2,7.2,4,65,0,s
5629.67806,60,1,9.1,7,8.8,8.530885,30,6,s
1400.745613,85,1,7.2,6,7.2,8.530885,44,11,s
28.519337,81,3,6.4,6.88237,6.8,8.530885,33,11,m
130.947855,85,1,9.1,7.2,8.3,8.530885,29,6,m
10705.89626,89,1,8.6,6.88237,9.1,8.530885,33,7,s
260.77429,85,1,9.1,7.2,8.3,8.530885,29,9,l
99.007113,86,1,8.3,6.5,7.8,8.530885,10,6,l
302.028378,89,1,8.8,7.2,8.5,9,22,85,l
181.566686,89,1,8.3,6.88237,8.009683,9,22,12,m
5422.522232,60,1,9.1,7,8.8,8.530885,30,0,m
41.215457,40,1,5.1,6.88237,5.1,8.530885,7,8,s
15285.42527,71,1,9.1,7,8.8,8.530885,30,9,s
654.279148,81,1,8.1,7.1,8.1,8.530885,18,0,m
853.048869,50,1,6.8,6.5,6.9,10,12,20,s
2037.426322,60,1,9.1,7,8.8,8.530885,30,0,l
134.705365,85,1,9.1,7.2,8.3,8.530885,29,8,m
2522.191449,60,1,9.1,7,8.8,8.530885,30,9,m
2433.396379,88,3,9.2,6.88237,8.4,10,25,0,m
323.934074,85,1,9.1,7.2,8.3,8.530885,29,5,l
10317.70437,81,1,8.3,6.88237,8.3,11,40,368,m
696.840526,85,1,7.7,6.6,7.6,8,17,0,s
189.638846,81,1,8.1,7.1,8.1,8.530885,18,10,l
153.958096,85,1,9.1,7.2,8.3,8.530885,29,0,l
96.683065,85,1,9.1,7.2,8.3,8.530885,29,22,l
181.249009,89,1,8.3,6.88237,8.009683,9,22,12,l
337.777903,85,1,7,6.3,7,5,41,0,s
38.047646,89,1,8.3,6.88237,8.009683,9,22,13,m
261.153935,60,1,9.1,7,8.8,8.530885,30,8,m
127.153259,89,1,7.5,5.8,6.6,4,10,9,s
131.501049,85,1,9.1,7.2,8.3,8.530885,29,8,m
4552.240708,60,1,9.1,7,8.8,8.530885,30,0,m
102.915511,85,1,9.1,7.2,8.3,8.530885,29,8,m
269.587176,85,1,9.1,7.2,8.3,8.530885,29,22,l
9403.248658,88,1,8.1,6.88237,8.009683,9,19,0,s
191.150427,60,1,7.7,6.1,7.2,8.530885,20,9,l
8260.237438,81,1,7.5,6.2,7.5,8.530885,43,0,s
1426.123956,81,1,7.5,6.88237,8.009683,8.530885,10,8,s
609.787534,85,1,7,5.8,7,8.530885,15,0,s
13302.22501,89,1,9.1,7.2,8.3,8.530885,29,8,m
129.658133,85,1,9.1,7.2,8.3,8.530885,29,8,m
181.559712,89,1,8.3,6.88237,8.009683,9,22,12,m
5419.97289,80,1,7.9,6.4,7.4,8,24,0,s
9751.790278,80,1,8.4,6.7,8.2,8,33,11,s
2354.847754,85,1,7.5,6.5,7.5,4,11,0,s
118.607515,85,1,7,6.2,7,8.530885,29,0,s
413.992801,85,1,7.5,6.88237,8.009683,5,40,43,s
5309.789146,80,1,9,6.88237,8.5,7,22,0,m
5545.494946,80,1,8.2,6.88237,7.8,9,30,0,s
7385.128655,81,1,8.8,7.2,8.5,9,22,0,m
2096.279573,88,1,7.6,6.88237,8.009683,8,33,12,s
9225.442703,88,1,8.2,7.6,7.9,8.530885,35,0,s
17205.95775,85,1,8,6.7,7.8,8,40,46,s
748.823486,71,1,7.7,6.88237,8.009683,8.530885,10,8,s
2133.780618,60,1,9.1,7,8.8,8.530885,30,3,m
122.860811,88,1,7.6,5.4,7.7,8.530885,30,10,l
745.003933,85,1,7.8,6.8,7.7,8,24,5,s
250.624512,85,1,6.6,5.8,6.4,8.530885,28,81,s
149.63723,85,1,8.2,6.88237,8.009683,6,7,0,m
2725.499726,85,1,8.3,6.88237,8.1,8.530885,15,647,m
782.024639,84,1,7.8,6.8,7.7,8,24,10,s
1041.712496,84,1,7.7,6.6,7.6,8,17,0,s
164.74147,86,1,8.3,6.5,7.8,8.530885,10,8,l
153.181602,89,1,8.8,7.2,8.5,9,22,24,m
152.838699,89,1,8.8,7.2,8.5,9,22,12,l
6083.006538,60,1,9.1,7,8.8,8.530885,30,0,m
4049.461237,80,1,7.9,6.88237,8.009683,6,109,0,s
93.477977,85,1,8.3,6.88237,8.1,8.530885,15,125,m
133.762357,85,1,9.1,7.2,8.3,8.530885,29,7,m
559.862944,60,1,9.1,7,8.8,8.530885,30,11,m
30.747768,50,1,7,6.88237,8.009683,8,21,6,s
642.702087,89,1,8.2,6.88237,8.009683,8,25,0,s
174.976452,81,1,8.1,7.1,8.1,8.530885,18,4,m
2261.137961,89,1,8.2,6.88237,8.009683,8,25,0,s
24.160367,50,1,7,6.88237,8.009683,8,21,7,s
134.018812,85,1,9.1,7.2,8.3,8.530885,29,9,m
3805.412492,80,3,8.6,6.88237,7.3,6,15,0,m
59.953269,80,3,7.7,6,7.2,9,2,8,l
1909.172486,85,1,9,6.88237,8.5,7,22,0,s
419.947748,89,1,7.7,6.7,7.4,8,40,8,s
287.950609,85,1,9.1,7.2,8.3,8.530885,29,10,l
2736.483682,88,3,9.2,6.88237,8.4,10,25,8,m
2517.428655,85,1,7.6,7.2,7.6,8.530885,28,0,s
5942.7446,80,1,9.1,7.2,8.3,8.530885,29,15,m
155.581576,88,1,8.6,6.88237,8.3,9,26.742663,85,m
31.079321,50,1,7,6.88237,8.009683,8,21,6,s
1286.74531,89,1,7.6,6.8,7.7,8.530885,35,15,s
182.784827,89,1,8.3,6.88237,8.009683,9,22,19,l
4930.911514,81,1,9,6.88237,8.5,7,22,0,s
130.499405,85,1,9.1,7.2,8.3,8.530885,29,6,l
16975.49894,85,1,9.5,6.88237,8.5,12,33,0,s
254.700999,85,1,8.4,6.88237,8.4,8.530885,26.742663,72,m
2110.523958,60,1,9.1,7,8.8,8.530885,30,10,l
556.514278,85,1,6.9,6.6,6.9,8.530885,48,0,s
72.265322,50,1,7,6.88237,8.009683,8,21,3,m
16931.06511,89,1,9.1,7.2,8.3,8.530885,29,0,s
3200.610148,85,1,8.8,7,8,8,35,0,s
7351.122692,81,1,8.8,7.2,8.5,9,22,0,m
3564.205614,88,3,9.2,6.88237,8.4,10,25,0,s
98.41796,86,1,8.3,6.5,7.8,8.530885,10,6,l
261.800698,60,1,9.1,7,8.8,8.530885,30,0,l
79.648762,60,1,7.8,6.5,7.3,8.530885,20,4,m
261.350441,85,1,8.4,6.88237,8.5,8.530885,15,0,s
3656.593122,80,3,8.6,6.88237,7.3,6,15,0,l
2725.499726,85,1,7.5,6.88237,8.009683,5,40,647,s
11489.31536,87,1,8.1,6.88237,7.5,9,38,8,s
7838.43159,88,1,9.1,7.2,8.3,8.530885,29,46,s
15567.22371,74,1,9.1,7,8.8,8.530885,30,0,s
144.687084,85,1,7.5,6.88237,7.5,9,10,5,s
68.424208,82,1,7.6,6.5,7.8,8.530885,13,13,m
126.002158,85,1,9.1,7.2,8.3,8.530885,29,7,l
817.6045,84,1,5.4,5.4,8.009683,8.530885,53,0,s
20.422376,82,1,7.1,6.4,7.1,8.530885,25,17,l
73.656742,50,1,6.6,6.88237,8.009683,7,17,0,s
12319.10475,82,1,8.3,6.88237,8.009683,9,22,14,s
1814.165711,88,1,7.7,6.5,7.5,8.530885,14,0,s
28.430196,85,1,6.8,6.88237,8.009683,8.530885,36,0,s
5233.854581,80,1,7.6,7,7.6,8.530885,34,0,s
17008.27863,85,1,9.5,6.88237,8.5,12,33,24,m
203.684367,85,1,7.7,6.88237,7.7,8.530885,26.742663,0,m
10608.50233,80,1,9.5,6.88237,8.5,12,33,0,s
258.348047,89,1,8.3,6.88237,8.009683,9,22,9,m
96.126228,85,1,9.1,7.2,8.3,8.530885,29,6,m
60.712598,82,1,8.1,6.8,7.9,8.530885,24,10,l
142.779084,85,1,7.1,6.88237,8.009683,8.530885,25,34,s
183.345105,89,1,8.3,6.88237,8.009683,9,22,15,s
11012.29162,88,1,8.8,7.2,8.5,9,22,0,s
1942.282352,81,1,8.1,7.1,8.1,8.530885,18,23.263212,s
265.394276,85,1,8.1,6.88237,8.3,9,45,0,m
2725.499726,85,1,8.1,6.88237,8.3,9,45,647,m
4865.500801,60,1,7.7,6.1,7.2,8.530885,20,0,s
9847.975828,88,1,8.1,6.8,7.9,8.530885,24,33,s
15805.23893,85,1,8,6.7,7.9,8,39,0,s
2524.038924,85,1,7.8,7.1,8,9,59,30,s
1711.920679,60,1,9.1,7,8.8,8.530885,30,7,l
183.192055,89,1,8.3,6.88237,8.009683,9,22,14,s
104.915599,85,1,7.5,6.88237,8.009683,5,40,8,s
3742.745811,80,3,8.6,6.88237,7.3,6,15,0,m
171.863239,81,1,8.1,7.1,8.1,8.530885,18,5,l
288.57978,83,3,7.5,6.88237,8.009683,9,20,0,s
298.808482,60,1,9.1,7,8.8,8.530885,30,18,m
115.457527,85,1,8.1,6.88237,8,8.530885,30,62,l
41.478345,85,1,7.4,6.88237,7.4,8.530885,33,69,s
298.339583,60,1,9.1,7,8.8,8.530885,30,13,l
130.594485,89,1,8.4,6.7,8.2,8,33,9,m
181.372059,89,1,8.3,6.88237,8.009683,9,22,18,s
7237.015374,73,1,8.6,8,8.6,11,33,37,s
4233.589526,60,1,9.1,7,8.8,8.530885,30,0,s
917.335344,82,1,7.6,6.4,7.3,8.530885,45,23.263212,s
6223.880863,80,1,9.1,7.2,8.3,8.530885,29,6,s
919.468628,85,1,7.1,6.3,7.1,8,50,26,s
143.214529,85,1,7.5,6.88237,7.5,8.530885,20,10,s
267.43886,85,1,9.1,7.2,8.3,8.530885,29,9,m
55.689749,85,1,7.5,6.88237,8.009683,5,40,11,m
23.630146,85,1,7.9,6.88237,7.9,8.530885,35,9,l
247.044653,85,1,9.1,7.2,8.3,8.530885,29,11,l
17384.99043,85,1,8.2,7.6,7.9,8.530885,35,72,s
639.847304,85,1,9.1,7.2,8.3,8.530885,29,7,m
5000.342161,60,1,9.1,7,8.8,8.530885,30,9,m
262.55164,60,1,9.1,7,8.8,8.530885,30,8,l
4398.235669,60,1,8.6,7.2,8.4,8.530885,30,0,s
285.478154,85,1,9.1,7.2,8.3,8.530885,29,9,l
15710.83583,71,3,9.2,6.88237,8.4,10,25,0,s
10550.18407,81,1,8.3,6.5,7.8,8.530885,10,0,s
759.502738,85,1,6.9,6.7,6.9,8.530885,10,0,s
389.960408,85,1,6.3,5.9,6.3,5,10,24,s
136.065068,85,1,9.1,7.2,8.3,8.530885,29,13,l
181.321461,89,1,8.3,6.88237,8.009683,9,22,14,s
241.346252,85,1,9.1,7.2,8.3,8.530885,29,12,l
534.797268,60,1,9.1,7,8.8,8.530885,30,0,m
223.436989,85,1,8.2,6.88237,8.009683,6,7,7,s
4652.328628,85,1,7.9,6.3,7.9,6,48,0,s
16884.52023,85,1,8,6.6,7.3,7,46,100,s
11022.87148,81,1,9.5,6.88237,8.5,12,33,0,s
69.69851,83,3,7.5,6.88237,8.009683,9,20,11,l
2725.499726,81,3,7.1,6.88237,7.2,4,12,647,m
540.685723,50,3,6.7,6.88237,6.7,11,15,0,s
104.351275,85,1,8.4,6.88237,8.4,8.530885,26.742663,0,l
1891.02589,88,1,7.6,6.88237,8.009683,8,33,6,s
1614.696858,89,1,8.3,6.88237,8.009683,9,22,9,s
8231.884921,88,1,9.1,7.2,8.3,8.530885,29,10,s
16968.85091,85,1,9.5,6.88237,8.5,12,33,98,m
6.075895,85,3,7.5,6.9,7.2,9,10,7,m
260.370954,60,1,9.1,7,8.8,8.530885,30,7,l
151.593534,85,1,8.2,6.88237,8.009683,6,7,12,m
15571.95594,85,1,8.1,6.6,7.6,9,13,0,s
4109.399292,85,3,7,5.8,7.1,8.530885,25,21,s
4706.934635,60,1,9.1,7,8.8,8.530885,30,9,m
16091.57775,89,1,8.4,6.88237,8.5,8.530885,15,12,s
3957.279718,80,1,8.6,6.88237,9.1,8.530885,33,9,m
242.055611,85,1,8.4,6.88237,8.5,8.530885,15,127,l
517.531975,60,1,9.1,7,8.8,8.530885,30,79,m
136.018739,85,1,9.1,7.2,8.3,8.530885,29,8,l
1680.380214,60,1,9.1,7,8.8,8.530885,30,9,l
427.844131,85,1,7.8,6.8,7.7,8,24,65,m
245.544198,85,1,9.1,7.2,8.3,8.530885,29,7,l
10622.85443,81,1,8.2,6.88237,8.009683,8,25,0,s
7974.951407,84,1,7.6,7,7.8,8.530885,17,7,s
3588.359361,80,3,8.6,6.88237,7.3,6,15,0,m
181.307347,89,1,8.3,6.88237,8.009683,9,22,13,l
685.175638,85,1,7.8,6.8,7.7,8,24,113,s
5648.878153,88,1,8.8,7,8,8,35,0,s
3581.608069,80,3,8.6,6.88237,7.3,6,15,0,l
38.310291,84,1,6.6,6.2,6.6,7,26,8,s
797.774298,73,1,8.5,6.88237,8.009683,11,26.742663,124,l
133.080777,89,1,8.8,7.2,8.5,9,22,7,l
2749.380074,81,1,6.8,6.4,6.8,6,33,0,s
8775.483583,81,1,9.5,6.88237,8.5,12,33,0,s
93.303109,85,1,9.1,7.2,8.3,8.530885,29,5,l
136.860129,87,1,8.2,6.88237,8.2,11,25,14,m
97.482041,85,1,9.1,7.2,8.3,8.530885,29,6,m
29.454234,82,1,7.1,6.4,7.1,8.530885,25,154,m
182.266663,89,1,8.3,6.88237,8.009683,9,22,7,m
30.416768,50,1,7,6.88237,8.009683,8,21,5,s
66.893998,85,3,7.5,6.9,7.2,9,10,0,s
1668.76674,60,1,9.1,7,8.8,8.530885,30,7,l
11613.10291,81,1,8.2,6.88237,8.009683,9,47,0,s
2522.340968,60,1,9.1,7,8.8,8.530885,30,10,m
236.410447,85,1,9.1,7.2,8.3,8.530885,29,8,l
9734.509192,89,1,7.4,6.88237,8.009683,7,55,8,s
247.126503,85,1,9.1,7.2,8.3,8.530885,29,9,l
146.853712,85,1,9.1,7.2,8.3,8.530885,29,14,l
429.148743,89,1,8.4,6.7,8.2,8,33,8,s
1815.186812,60,1,9.1,7,8.8,8.530885,30,7,m
7609.141721,88,1,8.2,6.88237,8.009683,8,25,8,s
118.383073,85,1,9.1,7.2,8.3,8.530885,29,8,l
2725.499726,85,1,7.9,6.88237,7.9,8.530885,35,647,m
1337.783657,85,1,9.1,7.2,8.3,8.530885,29,34,s
107.12543,85,1,9.1,7.2,8.3,8.530885,29,4,s
3535.191387,80,1,8.6,6.88237,9.1,8.530885,33,0,l
7937.628991,88,1,9.1,7.2,8.3,8.530885,29,0,s
39.607311,74,1,7.6,6.3,7.4,10,10,0,m
126.926507,85,1,9.1,7.2,8.3,8.530885,29,6,m
16768.45785,87,1,8.1,6.88237,8.009683,8.530885,48,23.263212,s
2064.056921,85,1,8.2,6.88237,7.8,9,30,34,s
12718.79604,89,3,9.2,6.88237,8.4,10,25,0,s
153.818986,85,1,8.3,6.9,8.1,8.530885,27,0,l
17068.63204,85,1,9.5,6.88237,8.5,12,33,22,s
2497.217813,60,1,9.1,7,8.8,8.530885,30,11,s
893.421858,81,1,7.6,6.88237,8.009683,7,32,0,s
413.973116,87,1,7.9,6.88237,8.009683,4,14,88,s
669.014289,81,1,8.1,7.1,8.1,8.530885,18,7,s
72.74683,74,1,8.1,6.88237,8.1,9,26.742663,5,l
148.958012,85,1,8.2,6.88237,8.009683,6,7,0,m
121.081546,85,1,9.1,7.2,8.3,8.530885,29,8,m
10308.59498,89,3,8.6,6.88237,7.3,6,15,8,l
130.112893,85,1,9.1,7.2,8.3,8.530885,29,10,m
14807.25415,85,1,8,6.7,7.9,8,39,0,s
408.314606,85,1,9.1,7.2,8.3,8.530885,29,0,s
3956.085177,80,1,8.6,6.88237,9.1,8.530885,33,0,m
115.401008,85,1,8.3,6.9,8.1,8.530885,27,4,m
16714.90111,85,1,8.3,6.88237,8.009683,9,22,0,s
182.902864,89,1,8.3,6.88237,8.009683,9,22,12,m
444.440239,85,1,6.9,6.7,6.9,8.530885,10,0,s
241.939404,89,1,8.3,6.88237,8.009683,9,22,7,m
171.421421,85,1,9.1,7.2,8.3,8.530885,29,10,l
410.285808,82,1,6.9,6.88237,8.009683,8.530885,26,0,s
4999.419279,80,1,9,6.88237,8.5,7,22,0,s
29.130418,82,1,8.1,6.8,7.9,8.530885,24,12,s
181.339001,89,1,8.3,6.88237,8.009683,9,22,15,m
123.141249,85,1,9.1,7.2,8.3,8.530885,29,9,m
253.725853,60,1,9.1,7,8.8,8.530885,30,12,l
56.631247,81,3,7.5,6.88237,7.5,8.530885,26.742663,8,m
21.466188,88,1,7.7,6.5,7.5,8.530885,14,23,l
447.211714,85,1,9.1,7.2,8.3,8.530885,29,4,m
322.936869,85,1,7.3,6.88237,8.009683,8.530885,40,69,s
2725.499726,85,1,8.2,6.88237,8.009683,6,7,647,m
119.450756,81,3,7.9,6.88237,7.9,8.530885,26.742663,13,s
124.75018,85,1,9.1,7.2,8.3,8.530885,29,6,l
377.521783,85,1,8.5,7.7,8.1,9,13,0,s
216.436171,85,1,8.3,6.88237,8.1,8.530885,15,0,m
91.10334,85,1,7.5,6.88237,8.009683,5,40,9,m
688.403199,85,3,7.5,6.9,7.2,9,10,29,s
222.580881,85,1,7.4,6.6,7.4,10,66,0,s
612.001467,85,1,9.1,7.2,8.3,8.530885,29,4,m
181.757126,89,1,8.3,6.88237,8.009683,9,22,15,l
13.21974,85,3,7.5,6.9,7.2,9,10,7,m
181.356944,89,1,8.3,6.88237,8.009683,9,22,11,s
231.568993,60,1,9.1,7,8.8,8.530885,30,4,l
4181.232858,81,3,7.7,6,7.2,9,2,0,s
30.806872,81,3,6.4,6.88237,6.8,8.530885,33,41,m
249.70781,85,1,9.1,7.2,8.3,8.530885,29,9,l
4500.380312,60,1,9.1,7,8.8,8.530885,30,5,m
131.320989,89,1,8.2,6.88237,8.009683,8,25,11,m
63.021266,85,1,7.4,6.88237,7.4,8.530885,10,91,s
89.523679,85,1,8.1,6.88237,8.3,9,45,4,m
35.175274,85,1,8.1,6.88237,8,8.530885,30,0,m
3201.821757,60,1,8.4,6.9,8.5,8.530885,34,0,s
93.139352,85,3,7.5,6.9,7.2,9,10,5,m
16967.86098,85,1,9.5,6.88237,8.5,12,33,176,m
5015.680673,85,1,7.9,6.88237,7.9,9,47,69,s
6315.292411,88,1,8.1,6.88237,7.5,9,38,5,s
96.186826,88,1,7.3,6.6,7.4,8.530885,24,0,s
181.640493,89,1,8.3,6.88237,8.009683,9,22,13,m
67.058868,82,3,7,5.8,7.1,8.530885,25,21,m
4434.292971,80,3,7.8,6.88237,7.9,11,35,0,s
1386.072924,87,3,9.2,6.88237,8.4,10,25,0,s
75.5862,82,1,8.1,6.8,7.9,8.530885,24,13,m
4447.965904,60,1,9.1,7,8.8,8.530885,30,6,m
174.294415,50,1,6.6,6.88237,8.009683,7,17,0,s
143.930491,89,1,8.8,7.2,8.5,9,22,22,l
2579.193395,60,1,9.1,7,8.8,8.530885,30,3,m
97.009648,85,1,9.1,7.2,8.3,8.530885,29,7,m
528.755353,80,3,7.7,6,7.2,9,2,0,s
293.869501,85,1,8.2,6.88237,8.009683,6,7,0,m
1774.213594,60,1,9.1,7,8.8,8.530885,30,0,l
4587.746281,60,1,9.1,7,8.8,8.530885,30,0,l
40.801664,50,1,6.6,6.88237,6.6,9,26.742663,10,l
18.569366,88,1,6.3,6.88237,8.009683,8.530885,35,8,s
24.614158,50,1,6.7,6.88237,6.7,9,14,428,m
14840.6647,89,1,8.1,6.88237,8.3,9,45,0,s
7390.677575,81,1,8.8,7.2,8.5,9,22,0,m
2948.227107,81,1,8.1,6.8,7.9,8.530885,24,2,s
65.57164,83,3,7.5,6.88237,8.009683,9,20,17,l
96.732377,60,3,7.8,6.5,7.5,11,28,0,l
3828.904314,85,3,8.2,6.5,8.1,9,33,8,s
748.110012,73,1,7.8,6.7,7.9,6,33,0,s
75.960488,82,1,7.6,6.5,7.8,8.530885,13,0,m
458.676124,85,1,8.1,6.88237,8.3,9,45,33,s
158.401732,85,1,6.7,6.88237,8.009683,5,12,340,s
96.095123,85,1,9.1,7.2,8.3,8.530885,29,10,m
16990.50765,85,1,9.5,6.88237,8.5,12,33,0,m
1720.419951,60,1,9.1,7,8.8,8.530885,30,13,l
2698.65631,89,1,8.8,7.2,8.5,9,22,0,s
3588.692517,80,3,8.6,6.88237,7.3,6,15,20,s
7288.271019,88,1,9.1,7.2,8.3,8.530885,29,0,s
134.418681,85,1,9.1,7.2,8.3,8.530885,29,7,m
121.300896,88,1,7.3,6.88237,8.009683,8.530885,28,5,m
652.781713,60,1,9.1,7,8.8,8.530885,30,11,l
14983.81273,85,1,7.9,6.88237,7.8,10,43,0,s
146.699892,89,1,8.3,6.88237,8.009683,9,22,14,m
67.551612,60,3,7.8,6.5,7.5,11,28,0,l
55.14324,85,3,7.5,6.9,7.2,9,10,3,m
99.943797,83,3,8.2,6.5,8.1,9,33,0,m
3940.610272,81,1,8.1,6.8,7.9,8.530885,24,0,s
239.197936,85,1,7.5,6.88237,7.5,8.530885,0,0,s
10978.53016,80,1,9.5,6.88237,8.5,12,33,0,m
115.457527,85,1,8.1,6.88237,8,8.530885,30,62,m
127.889998,85,1,9.1,7.2,8.3,8.530885,29,7,l
19.804473,86,1,6.2,5.3,6.2,8.530885,5,5,s
180.575447,81,1,8.1,7.1,8.1,8.530885,18,13,m
155.212377,85,1,8.3,6.9,8.1,8.530885,27,0,m
97.610035,87,1,7.6,6.88237,8.009683,8,33,15,s
14025.46283,82,1,9.5,6.88237,8.5,12,33,18,m
1463.556719,81,3,7,5.8,7.1,8.530885,25,0,s
1729.505645,60,1,9.1,7,8.8,8.530885,30,7,l
124.70451,88,1,7.7,6.5,7.5,8.530885,14,24,l
105.383025,85,1,9.1,7.2,8.3,8.530885,29,7,l
38.691564,60,3,7.8,6.5,7.5,11,28,0,m
5205.893375,80,1,7.7,6.88237,7.3,10,51,0,s
4026.877572,88,3,8.6,6.88237,7.3,6,15,7,s
37.063054,50,3,7.7,6.88237,7.8,9,20,2,m
136.895974,85,1,9.1,7.2,8.3,8.530885,29,6,m
1824.605749,60,1,9.1,7,8.8,8.530885,30,8,l
50.269957,85,1,8.2,6.88237,8.2,8.530885,26.742663,7,l
181.56058,89,1,8.3,6.88237,8.009683,9,22,15,m
11178.03068,80,1,9.5,6.88237,8.5,12,33,0,m
221.630582,60,1,7.7,6.1,7.2,8.530885,20,7,m
96.740134,85,1,9.1,7.2,8.3,8.530885,29,5,l
206.32575,60,1,7.8,7,7.9,8.530885,31,4,s
5.8731,85,3,7.5,6.9,7.2,9,10,8,m
436.678706,88,1,7.4,6.88237,8.009683,8.530885,26,8,s
5173.134525,84,1,8.8,7,8,8,35,0,s
202.282989,81,1,8.1,7.1,8.1,8.530885,18,17,m
121.603385,85,1,9.1,7.2,8.3,8.530885,29,8,m
1256.134082,85,1,8.1,7.3,8.2,8.530885,10,0,s
671.404945,60,1,9.1,7,8.8,8.530885,30,7,l
111.345402,60,3,7.8,6.5,7.5,11,28,0,l
161.066572,82,1,8.1,6.8,7.9,8.530885,24,31,m
181.413003,89,1,8.3,6.88237,8.009683,9,22,17,s
92.3554,85,3,7.5,6.9,7.2,9,10,9,l
2580.693395,60,1,9.1,7,8.8,8.530885,30,9,m
8646.174436,88,1,9.1,7.2,8.3,8.530885,29,9,s
261.479494,60,1,9.1,7,8.8,8.530885,30,10,l
181.366571,89,1,8.3,6.88237,8.009683,9,22,15,s
181.477669,89,1,8.3,6.88237,8.009683,9,22,19,m
10650.2176,80,1,9.5,6.88237,8.5,12,33,41,m
97.524623,84,1,8,6.4,7.9,6,33,9,l
350.418583,85,1,9.1,7.2,8.3,8.530885,29,6,m
11.779259,50,1,6.6,6.88237,8.009683,7,7,1,s
1232.927979,85,1,8.3,6.5,7.8,8.530885,10,10,s
267.590173,60,1,9.1,7,8.8,8.530885,30,12,l
261.065137,85,1,8.4,6.88237,8.5,8.530885,15,80,s
9368.659823,81,1,9.1,7.2,8.3,8.530885,29,60,s
182.256077,89,1,8.3,6.88237,8.009683,9,22,7,m
2291.285671,60,1,9.1,7,8.8,8.530885,30,6,m
713.886928,86,1,6.8,6.1,6.8,5,46,0,s
115.702907,85,1,9.1,7.2,8.3,8.530885,29,12,l
36.333357,60,3,7.8,6.5,7.5,11,28,0,m
3620.238918,80,3,8.6,6.88237,7.3,6,15,0,l
389.76796,87,1,8.2,6.88237,8.009683,8,32,23.263212,s
663.296042,60,1,9.1,7,8.8,8.530885,30,17,l
2019.523216,60,1,9.1,7,8.8,8.530885,30,0,l
67.298329,82,1,7.6,6.5,7.8,8.530885,13,10,s
9435.272581,81,1,8.3,6.88237,8.009683,9,22,0,s
931.98252,85,1,8.5,7.7,8.1,9,13,0,s
16992.40263,85,1,9.5,6.88237,8.5,12,33,95,m
86.545903,85,1,8.3,6.9,8.1,8.530885,27,7,m
8762.176629,81,1,9.5,6.88237,8.5,12,33,0,m
71.068876,89,1,8,6.7,7.9,8,39,35,l
12740.35472,88,1,9.1,7.2,8.3,8.530885,29,23.263212,s
4459.391182,80,3,9.2,6.88237,8.4,10,25,0,s
713.94231,85,1,7.4,6.6,7.4,10,66,0,s
181.430156,89,1,8.3,6.88237,8.009683,9,22,15,m
277.541631,85,1,8.4,6.88237,8.5,8.530885,15,74,m
104.767345,85,1,9.1,7.2,8.3,8.530885,29,12,m
134.41023,85,1,9.1,7.2,8.3,8.530885,29,5,l
182.108769,89,1,8.3,6.88237,8.009683,9,22,15,l
164.282385,85,1,8.1,6.88237,8,8.530885,30,0,m
243.554366,60,1,6.9,6.88237,8.009683,4,25,0,s
101.489201,85,1,9.1,7.2,8.3,8.530885,29,12,l
9471.40098,88,1,8,6.5,8,8.530885,33,4,s
181.386282,89,1,8.3,6.88237,8.009683,9,22,15,m
213.912235,81,1,8.1,7.1,8.1,8.530885,18,13,m
319.517397,85,1,8.4,6.88237,8.5,8.530885,15,10,m
196.916798,85,1,9.1,7.2,8.3,8.530885,29,10,m
3688.769497,80,1,7.8,7.9,7.5,5,50,11,s
17464.12501,85,1,8,6.7,7.8,8,40,72,s
115.050946,85,1,9.1,7.2,8.3,8.530885,29,34,l
135.441068,85,1,9.1,7.2,8.3,8.530885,29,8,m
29.669111,89,1,8.5,6.88237,8.5,11,26.742663,34,m
3848.832314,80,3,8.6,6.88237,7.3,6,15,0,l
0,85,1,7,6.88237,7,8.530885,26.742663,0,s
1039.279807,81,1,7.7,6.9,7.7,3,20,0,s
10233.33157,81,1,8.3,6.5,7.8,8.530885,10,7,s
124.400789,85,1,9.1,7.2,8.3,8.530885,29,7,s
2513.922939,85,1,7.3,6.88237,7.3,8.530885,36,10,s
130.292299,60,1,7.8,6.5,7.3,8.530885,20,17,l
8792.388979,81,1,9.5,6.88237,8.5,12,33,90,s
111.962159,83,3,5.8,6.88237,8.009683,6,10,14,s
96.622362,85,1,9.1,7.2,8.3,8.530885,29,15,l
125.707929,85,1,9.1,7.2,8.3,8.530885,29,6,m
235.747085,85,1,9.1,7.2,8.3,8.530885,29,12,m
1345.882595,87,1,8.2,6.88237,8.009683,8,32,0,s
14874.12714,85,1,8.1,6.88237,7.5,9,38,0,s
68.363153,85,1,6.5,6.88237,8.009683,8.530885,41,49,s
24.283453,50,1,7,6.88237,8.009683,8,21,9,m
177.627153,81,1,8.1,7.1,8.1,8.530885,18,8,m
0,50,1,6.5,6.88237,6.5,10,26.742663,0,s
54.257339,88,1,7.8,6.4,7.7,8.530885,18,0,m
236.146126,85,1,9.1,7.2,8.3,8.530885,29,8,l
1051.978434,81,1,8.1,7.1,8.1,8.530885,18,0,s
15388.43525,89,1,9,6.88237,8.5,7,22,0,s
8733.458281,88,1,8.3,6.88237,8.1,8.530885,15,0,s
98.0196,86,1,8.3,6.5,7.8,8.530885,10,0,l
2496.415095,60,1,9.1,7,8.8,8.530885,30,10,s
97.735833,89,1,8.8,7.2,8.5,9,22,14,l
177.430804,81,1,8.1,7.1,8.1,8.530885,18,10,m
2516.679499,60,1,9.1,7,8.8,8.530885,30,8,s
3015.24129,89,1,8.1,6.88237,7.5,9,38,0,s
135.962792,85,1,9.1,7.2,8.3,8.530885,29,0,l
140.921488,89,1,8.3,6.88237,8.009683,9,22,10,m
267.61629,60,1,9.1,7,8.8,8.530885,30,6,l
317.245755,50,3,7,6.88237,7.2,11,40,22,s
64.444579,83,3,7.5,6.88237,8.009683,9,20,23,l
17086.68104,85,1,9.5,6.88237,8.5,12,33,5,s
1473.131258,85,1,7.3,6.88237,7.3,8.530885,40,12,s
158.179815,89,1,8.8,7.2,8.5,9,22,21,m
6337.094373,80,1,7.8,7.1,8,9,59,0,s
183.840817,89,1,8.3,6.88237,8.009683,9,22,6,s
18.501374,50,3,7.7,6.88237,7.8,9,20,11,l
4719.554793,60,1,9.1,7,8.8,8.530885,30,6,s
10589.04684,81,1,8.3,6.88237,8.3,11,40,13,s
106.594175,85,1,9.1,7.2,8.3,8.530885,29,8,l
17017.49204,85,1,9.5,6.88237,8.5,12,33,0,m
6238.089123,88,1,8.6,6.88237,9.1,8.530885,33,2,s
207.552493,85,1,7.3,6.6,7.3,8.530885,51,5,s
287.447776,85,1,9.1,7.2,8.3,8.530885,29,9,l
133.115101,85,1,9.1,7.2,8.3,8.530885,29,10,l
6302.560282,88,1,9,6.88237,8.5,7,22,5,m
5.436374,85,3,7.5,6.9,7.2,9,10,11,m
1997.694047,88,1,8.2,6.88237,8.009683,8,32,0,s
539.065373,85,1,7,6.88237,8.009683,8.530885,50,0,s
186.051273,85,1,8,6.88237,8,5,26.742663,0,m
323.809806,85,1,9.1,7.2,8.3,8.530885,29,4,m
263.527897,60,1,9.1,7,8.8,8.530885,30,10,l
696.799239,85,3,7.5,6.9,7.2,9,10,0,s
3711.59946,80,1,7.2,6.3,7.1,8,15,11,s
52.81001,88,1,7.6,6.88237,7.6,8.530885,26.742663,85,m
1799.625212,85,1,8.2,6.88237,8.3,8.530885,33,12,s
69.89046,83,3,7.5,6.88237,8.009683,9,20,14,s
233.648468,88,1,7.6,5.4,7.7,8.530885,30,13,m
135.912491,85,1,9.1,7.2,8.3,8.530885,29,9,l
2441.329989,85,1,7.4,6.3,7.4,6,73,4,s
125.74253,85,1,9.1,7.2,8.3,8.530885,29,8,m
108.748297,85,1,7.5,6.88237,8.009683,5,40,22,s
5383.716569,80,1,8.2,6.88237,7.8,9,30,0,s
231.535375,85,1,8.3,6.88237,8.1,8.530885,15,0,l
197.756464,85,1,6.9,6.7,6.9,8.530885,10,9,s
282.580388,85,1,7,6.88237,8.009683,8.530885,60,0,s
182.989481,89,1,8.3,6.88237,8.009683,9,22,11,s
6.055208,85,3,7.5,6.9,7.2,9,10,5,m
102.292557,50,1,6.8,6.88237,8.009683,8,14,0,s
234.292922,60,1,7.7,6.1,7.2,8.530885,20,0,l
308.352018,85,1,9.1,7.2,8.3,8.530885,29,9,l
10639.95014,80,1,9.5,6.88237,8.5,12,33,16,m
413.002947,73,1,7.8,6.88237,7.3,7,22,13,s
1824.65208,88,1,7.7,6.5,7.5,8.530885,14,0,s
6471.467134,85,1,7.7,6.4,7.9,8.530885,33,0,s
480.167079,85,1,9.1,7.2,8.3,8.530885,29,7,m
6511.200737,88,1,7.6,6.5,7.3,6,62,0,s
87.228944,82,1,8.1,6.8,7.9,8.530885,24,27,m
3645.180432,80,3,8.6,6.88237,7.3,6,15,40,l
4202.271855,87,1,9.1,7.2,8.3,8.530885,29,0,s
8.365057,89,1,8.8,7.2,8.5,9,22,24,m
3773.949173,85,3,8.2,6.5,8.1,9,33,0,s
38.859224,60,1,7.8,6.5,7.3,8.530885,20,9,m
4517.361155,83,1,9.1,7.2,8.3,8.530885,29,10,s
276.609403,74,1,7.7,6.88237,8.009683,8.530885,10,7,s
997.052948,85,1,8.5,7.7,8.1,9,13,69,s
17543.84974,85,1,9.5,6.88237,8.5,12,33,0,s
3929.823965,80,1,8,6.4,7.7,6,19,6,s
6742.785302,88,1,8.1,6.88237,7.5,9,38,5,s
260.402434,60,1,9.1,7,8.8,8.530885,30,9,l
1623.898066,60,1,9.1,7,8.8,8.530885,30,7,l
13911.49069,80,1,9.5,6.88237,8.5,12,33,6,s
342.03522,50,1,6.8,6.88237,8.009683,8,14,10,s
3578.918049,80,3,8.6,6.88237,7.3,6,15,0,m
264.343553,82,1,6.3,6,6.2,8.530885,11,9,s
721.567283,85,1,7.9,6.88237,7.9,8.530885,35,7,s
7234.475618,81,1,8.8,7.2,8.5,9,22,0,m
81.715159,88,1,7.7,6.5,7.5,8.530885,14,12,m
7246.486172,81,1,8.6,6.88237,9.1,8.530885,33,0,s
2679.778759,85,1,8.8,7,8,8,35,0,s
134.168724,85,1,9.1,7.2,8.3,8.530885,29,9,m
745.121182,85,1,9.1,7.2,8.3,8.530885,29,7,s
17016.07822,85,1,9.5,6.88237,8.5,12,33,0,s
198.535283,85,1,9.1,7.2,8.3,8.530885,29,7,m
128.630397,85,1,8.3,6.88237,8.1,8.530885,15,0,s
518.741606,85,1,7.7,6.6,7.6,8,17,11,s
4637.617439,84,1,8.8,7,8,8,35,20,s
101.161244,85,1,6.9,6.88237,8.009683,8,9,69,s
571.549197,85,1,9.1,7.2,8.3,8.530885,29,0,s
7745.735334,71,1,8.1,6.88237,8.009683,9,19,0,s
102.123785,85,1,9.1,7.2,8.3,8.530885,29,8,l
157.50119,85,1,7.1,6.3,7.1,9,9,0,s
7984.027102,81,1,8.1,6.4,7.7,9,23,5,s
19.708687,85,3,7.5,6.9,7.2,9,10,3,m
76.956315,85,1,8.1,6.88237,8,8.530885,30,0,l
547.968531,85,1,7.1,6.3,7.1,8,50,0,s
10574.82094,81,1,9.5,6.88237,8.5,12,33,0,s
5321.407918,80,1,7.9,6.88237,7.2,8.530885,28,6,s
2206.591853,87,1,8.3,7.3,8.1,9,14,68,s
168.761577,89,1,8.8,7.2,8.5,9,22,0,l
2725.499726,81,1,8.3,6.88237,8.3,11,40,647,m
279.092146,85,1,8.4,6.88237,8.5,8.530885,15,0,m
2725.499726,85,1,8.3,6.88237,8.1,8.530885,15,647,m
5727.110437,60,1,7.7,6.1,7.2,8.530885,20,5,s
562.859745,60,1,9.1,7,8.8,8.530885,30,0,s
173.37914,85,1,7.5,6.88237,7.5,9,10,26,m
133.319793,89,1,8.8,7.2,8.5,9,22,7,l
892.754348,85,1,7,5.8,7,8.530885,15,0,s
152.287572,89,1,8.8,7.2,8.5,9,22,14,l
771.575651,60,1,9.1,7,8.8,8.530885,30,6,s
6018.885306,80,1,8.1,6.88237,8.009683,9,19,0,s
48.372251,83,3,7.5,6.88237,8.009683,9,20,14,l
2884.911884,88,3,9.2,6.88237,8.4,10,25,11,m
93.081184,89,1,8,6.7,7.8,8,40,33,m
68.152639,89,1,8.8,7.2,8.5,9,22,16,l
3101.671967,88,3,9.2,6.88237,8.4,10,25,47,m
152.103109,85,1,6.7,6.88237,6.7,8.530885,20,0,s
201.435463,81,1,8.1,7.1,8.1,8.530885,18,18,l
4828.47736,60,1,9.1,7,8.8,8.530885,30,13,m
2265.858533,88,3,9.2,6.88237,8.4,10,25,13,s
11182.33759,80,1,9.5,6.88237,8.5,12,33,21,m
261.000246,60,1,9.1,7,8.8,8.530885,30,9,l
1280.445914,85,1,9.1,7.2,8.3,8.530885,29,22,s
68.893914,89,1,8.2,6.88237,8.009683,8,25,20,m
1633.155884,60,1,9.1,7,8.8,8.530885,30,8,l
131.816658,85,1,9.1,7.2,8.3,8.530885,29,15,l
17912.4982,85,1,8.5,6.88237,8.3,11,70,91,s
260.727064,60,1,9.1,7,8.8,8.530885,30,11,s
1430.632904,87,1,8.2,8.2,8.3,6,25,5,s
118.751823,85,1,9.1,7.2,8.3,8.530885,29,7,l
8021.289924,88,1,8.1,7.1,8.1,8.530885,18,0,s
94.73364,60,1,8.6,7.2,8.4,8.530885,30,11,m
277.689956,60,1,7.7,6.1,7.2,8.530885,20,16,m
51.544222,60,1,7.8,6.5,7.3,8.530885,20,10,l
3787.151946,80,1,8.30368,6.88237,8.009683,8.530885,26.742663,0,s
473.55493,85,1,9.1,7.2,8.3,8.530885,29,6,m
9349.413332,88,1,7.9,6.4,7.4,8,24,0,s
88.605126,85,1,9.1,7.2,8.3,8.530885,29,7,l
368.929721,74,1,7.3,6.88237,8.009683,10,33,48,s
10475.51662,73,1,9.1,7,8.8,8.530885,30,0,s
58.222827,85,1,6.7,6,6.5,9,2,6,s
79.382317,85,1,7.3,6.88237,8.009683,9,63,0,s
135.110995,85,1,9.1,7.2,8.3,8.530885,29,8,l
6.394838,50,3,7,6.88237,7.2,11,40,0,m
82.007415,83,3,8.2,6.5,8.1,9,33,0,s
7699.655569,88,1,8.1,6.88237,8,8.530885,30,12,s
108.904328,85,1,6.7,6,6.5,9,2,7,s
19.103781,81,1,8,6.88237,8,8.530885,33,28,m
134.238578,85,1,9.1,7.2,8.3,8.530885,29,7,m
5945.409852,60,1,9.1,7,8.8,8.530885,30,0,m
375.503555,88,1,7.5,6.2,7.5,8.530885,43,8,s
262.747298,60,1,9.1,7,8.8,8.530885,30,5,l
120.707386,85,1,9.1,7.2,8.3,8.530885,29,10,m
198.350804,89,1,8.1,6.4,7.7,9,23,167,l
4407.683728,85,1,8.6,6.88237,9.1,8.530885,33,9,s
4733.958185,81,1,7.6,6.4,7.3,8.530885,45,5,s
151.787462,85,1,7.5,6.88237,7.5,9,10,0,m
252.286195,85,1,8.2,6.88237,8.009683,6,7,0,s
28.772014,82,1,8.1,6.8,7.9,8.530885,24,3,s
1006.988199,87,1,7.9,6.88237,8.009683,4,14,0,s
318.549237,85,1,9.1,7.2,8.3,8.530885,29,9,l
279.927682,85,1,8.1,6.88237,8.3,9,45,0,m
15148.25199,89,1,9.1,7.2,8.3,8.530885,29,0,m
5147.737069,60,1,9.1,7,8.8,8.530885,30,0,m
46.151636,60,1,7.8,6.5,7.3,8.530885,20,20,m
598.655726,89,1,8.2,6.88237,8.009683,8,25,7,s
134.469022,85,1,9.1,7.2,8.3,8.530885,29,7,l
124.224121,85,1,9.1,7.2,8.3,8.530885,29,7,m
178.981866,89,1,8.3,6.88237,8.009683,9,22,17,m
702.010268,85,3,7.5,6.9,7.2,9,10,8,s
190.937257,81,1,8.1,7.1,8.1,8.530885,18,3,l
131.97543,87,1,7.3,6.88237,8.009683,8.530885,20,0,s
6390.587321,60,1,9.1,7,8.8,8.530885,30,0,m
137.644117,86,1,9,6.88237,8.5,7,22,0,l
189.59017,81,1,8.1,7.1,8.1,8.530885,18,12,m
198.138596,85,1,9.1,7.2,8.3,8.530885,29,29,l
318.487131,85,1,9.1,7.2,8.3,8.530885,29,26,l
10340.26158,80,1,8.3,6.88237,8.3,11,40,188,l
4250.985335,81,1,8.1,7.1,8.1,8.530885,18,2,s
119.142411,89,1,7.5,5.8,6.6,4,10,0,m
1737.857612,60,1,8.2,6.88237,7.8,8.530885,50,7,s
57.210908,89,1,7.6,6.88237,7.6,10,26.742663,48,l
4211.783551,88,1,8,6.7,7.9,8,39,8,s
4509.511568,88,1,7.7,6.88237,7.8,8.530885,35,12,s
7175.977806,82,1,7.9,6.6,7.9,5,33,0,s
27.691422,50,1,7,6.88237,8.009683,8,21,8,m
85.62632,81,1,6.7,6.1,6.7,8.530885,21,0,s
62.770209,85,1,8.1,6.88237,8,8.530885,30,134,l
260.701093,60,1,9.1,7,8.8,8.530885,30,12,m
10.039539,85,3,7.5,6.9,7.2,9,10,5,m
264.099374,60,1,9.1,7,8.8,8.530885,30,6,l
7097.758984,81,1,9.1,7,8.8,8.530885,30,2,s
17134.06831,85,1,9.5,6.88237,8.5,12,33,0,m
3656.696087,80,1,8.6,6.88237,9.1,8.530885,33,18,m
5023.430587,60,1,9.1,7,8.8,8.530885,30,0,s
117.270763,85,1,9.1,7.2,8.3,8.530885,29,9,m
91.641735,88,1,8.2,6.88237,8.009683,9,47,5,s
14077.04113,80,1,8.3,6.88237,8.009683,9,22,6,s
303.192301,85,1,7.8,6.8,7.7,8,24,0,s
17473.86659,85,1,8,6.7,7.8,8,40,0,s
7.142012,85,3,7.5,6.9,7.2,9,10,5,m
4298.188919,88,1,8.6,6.88237,9.1,8.530885,33,41,s
7713.534516,81,1,8.3,7.3,8.1,9,14,0,s
531.54318,85,1,9.1,7.2,8.3,8.530885,29,7,m
183.287326,89,1,8.3,6.88237,8.009683,9,22,9,s
278.989863,85,1,7.5,6.88237,8.009683,5,40,0,s
181.53686,89,1,8.3,6.88237,8.009683,9,22,14,m
2782.677262,81,1,7.5,6.4,7.3,8.530885,33,0,s
289.938691,85,1,9.1,7.2,8.3,8.530885,29,13,l
132.376819,85,1,9.1,7.2,8.3,8.530885,29,6,m
182.832832,89,1,8.3,6.88237,8.009683,9,22,0,l
4154.779635,85,1,7.9,6.6,7.6,6,33,67,s
3879.400567,80,1,8.6,6.88237,9.1,8.530885,33,0,m
6609.226848,85,1,7.5,6.4,7.3,8.530885,33,9,s
181.351976,89,1,8.3,6.88237,8.009683,9,22,13,s
995.178095,82,1,7.8,6.88237,8.1,8.530885,35,39,s
2806.318156,85,1,8.8,7,8,8,35,67,s
5982.013422,80,1,9.1,7.2,8.3,8.530885,29,7,m
103.895358,85,1,9.1,7.2,8.3,8.530885,29,11,l
124.740048,85,1,9.1,7.2,8.3,8.530885,29,8,l
24.61459,89,1,6.8,6,8.009683,8.530885,28,0,s
910.609571,87,1,8.2,6.88237,8.009683,8,32,292,s
14422.15655,85,1,8.1,6.4,7.7,9,23,0,s
3635.368162,80,3,8.6,6.88237,7.3,6,15,8,m
17401.32552,87,1,8.1,6.88237,8.009683,8.530885,48,0,s
127.091905,60,1,7.8,6.5,7.3,8.530885,20,10,m
231.008423,60,1,9.1,7,8.8,8.530885,30,5,l
82.003798,60,1,7.8,6.5,7.3,8.530885,20,5,m
1815.597366,60,1,9.1,7,8.8,8.530885,30,9,m
191.718464,85,1,8.2,6.88237,8.009683,6,7,57,m
131.547211,85,1,9.1,7.2,8.3,8.530885,29,10,m
10854.49688,88,1,9.1,7.2,8.3,8.530885,29,0,s
1546.176889,85,1,8.8,7,8,8,35,0,s
153.787211,85,1,9.1,7.2,8.3,8.530885,29,9,l
25.056195,50,1,7.6,6.3,7.8,10,13,0,m
723.687925,85,1,8.2,6.88237,7.8,9,30,0,s
5313.359919,89,1,7.3,6.88237,8.009683,8.530885,28,0,s
74.377844,85,1,7.4,6.88237,7.4,8.530885,26.742663,7,m
208.326807,81,1,8.1,7.1,8.1,8.530885,18,27,m
9100.038,77,1,9.1,7,8.8,8.530885,30,0,s
129.042509,85,1,9.1,7.2,8.3,8.530885,29,9,m
8298.758404,81,1,7.7,6.5,7.5,8.530885,14,0,s
567.123268,85,1,7.7,6.8,7.7,8,44,6,s
2136.488428,88,3,9.2,6.88237,8.4,10,25,26,s
59.583821,85,1,8.1,6.88237,8,8.530885,30,8,m
124.145786,86,1,8.2,6.88237,8.3,8.530885,33,254,m
169.619728,74,1,7.7,6.88237,8.4,10,26.742663,11,m
183.158264,89,1,8.3,6.88237,8.009683,9,22,12,m
526.893625,60,1,7.8,7,7.9,8.530885,31,0,s
92.28317,85,1,9.1,7.2,8.3,8.530885,29,11,l
2725.499726,84,1,8,6.4,7.9,6,33,647,l
163.848447,82,3,7,5.8,7.1,8.530885,25,10,m
16993.5024,85,1,9.5,6.88237,8.5,12,33,0,m
137.553702,85,1,9.1,7.2,8.3,8.530885,29,6,s
112.558159,85,1,8.3,6.88237,8.1,8.530885,15,0,s
6440.17166,83,1,8.8,7,8,8,35,0,s
1215.581706,60,1,9.1,7,8.8,8.530885,30,0,m
5030.262449,60,1,9.1,7,8.8,8.530885,30,14,l
13471.81337,89,1,9.1,7.2,8.3,8.530885,29,23.263212,s
3576.698782,80,3,8.6,6.88237,7.3,6,15,0,m
22.903638,85,3,7.5,6.9,7.2,9,10,7,m
161.247495,86,1,8.3,6.5,7.8,8.530885,10,0,l
131.59404,89,1,8.8,7.2,8.5,9,22,14,l
111.907453,85,1,9.1,7.2,8.3,8.530885,29,0,l
4389.355162,80,1,7.6,7.2,7.6,8.530885,28,6,s
491.206446,74,1,7.5,6.88237,8.009683,8,19,0,s
3496.166817,80,3,8.6,6.88237,7.3,6,15,0,l
5850.227325,80,1,8.3,7.3,8.1,9,14,5,s
2006.49456,85,1,7.3,6.88237,7.3,8.530885,36,91,s
3765.214372,80,1,8.7,7.7,7.8,6,30,0,s
71.877688,85,1,8.3,6.9,8.1,8.530885,27,8,m
92.09332,86,1,8.3,6.88237,8.009683,10,40,460,m
135.552861,85,1,9.1,7.2,8.3,8.530885,29,10,l
221.967595,60,1,7.7,6.1,7.2,8.530885,20,14,l
192.803897,81,1,8.1,7.1,8.1,8.530885,18,14,l
167.084959,85,1,7.7,6.6,7.6,8,17,0,m
13238.05071,89,1,9.1,7.2,8.3,8.530885,29,3,m
183.68655,89,1,8.3,6.88237,8.009683,9,22,0,s
42.6302,74,1,7.6,6.3,7.4,10,10,0,m
17003.85728,85,1,9.5,6.88237,8.5,12,33,7,s
79.705246,85,3,7.5,6.9,7.2,9,10,10,s
78.982314,81,1,6.9,6.88237,8.009683,8.530885,20,0,s
6144.620122,88,1,8.1,7.3,8.2,8.530885,10,12,s
209.549239,81,1,7.6,6.88237,8.009683,8.530885,12,8,s
81.540043,81,1,8,6.88237,8,8.530885,33,10,l
18255.77065,71,1,9.1,7.2,8.3,8.530885,29,0,s
2725.499726,60,3,7.8,6.5,7.5,11,28,647,l
83.48299,85,1,9.1,7.2,8.3,8.530885,29,20,l
7141.042868,82,1,8.3,7.3,8.1,9,14,0,s
69.547823,83,3,7.5,6.88237,8.009683,9,20,14,m
118.78924,85,1,6.5,6.88237,6.5,8.530885,50,0,s
10645.09725,80,1,9.5,6.88237,8.5,12,33,0,l
8971.599893,81,1,8.8,7.2,8.5,9,22,0,s
4534.044886,60,1,9.1,7,8.8,8.530885,30,10,m
79.090841,85,1,9.1,7.2,8.3,8.530885,29,9,l
80.926593,85,3,7.5,6.9,7.2,9,10,0,s
13393.76702,87,1,8.3,6.88237,8.009683,9,22,12,s
3127.263208,85,1,7.6,6.88237,8.009683,7,32,6,s
182.675998,89,1,8.3,6.88237,8.009683,9,22,20,l
241.589769,85,1,9.1,7.2,8.3,8.530885,29,10,l
171.730036,85,1,7.5,6.88237,7.5,9,10,82,m
386.506755,85,1,8.2,6.88237,8.009683,6,7,0,m
41.754398,89,1,8.8,7.2,8.5,9,22,14,l
3583.360561,80,3,8.6,6.88237,7.3,6,15,12,l
298.749353,89,1,8.8,7.2,8.5,9,22,0,m
51.023708,85,3,7.5,6.9,7.2,9,10,4,s
61.142222,85,1,6.2,5.8,6.2,8,15,5,s
182.9309,89,1,8.3,6.88237,8.009683,9,22,13,s
19.180226,88,1,8,6.6,7.4,8.530885,33,42,m
2725.499726,50,1,7.1,6.88237,7.1,10,26.742663,647,l
386.368925,85,1,8.1,6.88237,8.3,9,45,0,s
24.001451,74,3,7.1,6.88237,8.009683,9,15,0,l
201.816197,81,1,8.1,7.1,8.1,8.530885,18,27,l
3532.446197,80,1,8.6,6.88237,9.1,8.530885,33,0,l
2791.37382,88,3,8.6,6.88237,7.3,6,15,0,s
63.392616,89,1,8,6.7,7.9,8,39,11,m
13217.28333,89,1,9.1,7.2,8.3,8.530885,29,9,m
132.07884,85,1,9.1,7.2,8.3,8.530885,29,6,m
533.399216,85,1,7.7,6.6,7.6,8,17,8,s
4901.07029,80,1,8.5,7.7,8.1,9,13,3,s
390.712772,85,1,8.4,6.88237,8.4,8.530885,26.742663,12,l
107.014025,85,1,9.1,7.2,8.3,8.530885,29,8,m
303.737521,85,1,7.8,6.8,7.7,8,24,9,s
276.308189,85,1,8.3,6.88237,8.009683,10,40,0,s
4930.695546,80,1,8,7.2,7.8,7,55,0,s
181.484668,89,1,8.3,6.88237,8.009683,9,22,22,m
5297.803386,80,1,7.5,6.88237,8.009683,6,57,11,s
79.187228,60,1,7.8,6.5,7.3,8.530885,20,11,m
323.469399,85,1,9.1,7.2,8.3,8.530885,29,7,l
6026.104035,60,1,9.1,7,8.8,8.530885,30,14,m
206.38544,85,1,8.2,6.88237,8.009683,6,7,0,m
2313.153868,82,1,8,6,8.2,8.530885,17,0,s
15.3195,85,1,6.6,6.2,6.6,5,14,0,s
2253.503062,60,1,9.1,7,8.8,8.530885,30,2,l
10461.17999,89,1,8.1,6.88237,8.009683,9,19,0,s
33.212066,74,3,7.1,6.88237,8.009683,9,15,13,m
313.809185,85,1,9.1,7.2,8.3,8.530885,29,5,m
570.751043,60,1,9.1,7,8.8,8.530885,30,14,l
5227.05233,60,1,7.8,6.5,7.3,8.530885,20,2,s
147.84055,85,1,9.1,7.2,8.3,8.530885,29,6,l
18435.3292,84,1,8.8,7.2,8.5,9,22,0,s
7580.074269,88,1,8.1,6.88237,8.3,9,45,6,s
3.708436,88,1,7.7,6.5,7.5,8.530885,14,9,l
117.961503,85,1,9.1,7.2,8.3,8.530885,29,9,l
125.194278,85,1,9.1,7.2,8.3,8.530885,29,5,l
165.736343,81,6,8.30368,4.4,8.009683,8.530885,10,9,s
304.352284,89,1,7.6,6.5,7.3,6,62,48,s
5933.931242,80,1,8.3,7.3,8.1,9,14,11,s
8641.018973,88,1,9.1,7.2,8.3,8.530885,29,5,s
181.592137,89,1,8.3,6.88237,8.009683,9,22,19,m
4977.721267,80,1,9,6.88237,8.5,7,22,0,s
189.021933,81,1,8.1,7.1,8.1,8.530885,18,5,l
1737.360064,60,1,9.1,7,8.8,8.530885,30,7,m
16968.59201,85,1,9.5,6.88237,8.5,12,33,16,m
96.80711,85,1,9.1,7.2,8.3,8.530885,29,6,l
5979.429882,80,1,9.1,7.2,8.3,8.530885,29,0,s
200.701998,85,1,7.4,6.88237,7.4,8.530885,60,0,m
55.963674,86,1,9,6.88237,8.5,7,22,0,l
181.541089,89,1,8.3,6.88237,8.009683,9,22,14,l
33.152579,88,1,8,6.6,7.4,8.530885,33,0,m
1.311923,60,1,8.6,7.2,8.4,8.530885,30,14,m
88.201686,85,1,8.1,6.88237,8.3,9,45,18,s
6079.782591,81,1,8.8,7.2,8.5,9,22,0,s
16989.23706,85,1,8,6.7,7.8,8,40,0,s
3569.422375,89,1,8.8,7.2,8.5,9,22,3,m
11190.90619,80,1,9.5,6.88237,8.5,12,33,0,m
7954.203828,88,1,8.1,6.88237,7.5,9,38,0,s
530.202755,85,1,7.1,6.3,7.1,8,50,145,s
4527.732087,60,1,9.1,7,8.8,8.530885,30,11,l
6119.011183,80,1,8.4,6.88237,8.5,8.530885,15,11,s
14097.5915,82,1,8.2,6.88237,8.009683,8,25,0,s
121.699313,85,1,9.1,7.2,8.3,8.530885,29,8,m
10420.52331,89,1,8.1,6.88237,8.009683,9,19,0,s
67.099492,60,3,7.8,6.5,7.5,11,28,0,m
17024.81949,85,1,9.5,6.88237,8.5,12,33,9,m
74.674938,85,1,7.9,6.88237,7.9,8.530885,35,11,s
103.752182,89,1,8,6.7,7.9,8,39,14,m
9254.80583,87,1,7.9,6.4,7.4,8,24,3,s
487.349358,85,1,9.1,7.2,8.3,8.530885,29,7,m
16.416633,60,3,7.8,6.5,7.5,11,28,4,m
145.168445,89,1,8.8,7.2,8.5,9,22,9,l
135.799902,85,1,9.1,7.2,8.3,8.530885,29,12,l
290.638658,82,1,7.1,6.88237,8.009683,2,21,7,s
68.288193,60,3,7.8,6.5,7.5,11,28,20,l
214.747291,60,1,7.7,6.1,7.2,8.530885,20,9,m
3818.345906,88,3,9.2,6.88237,8.4,10,25,5,s
17002.85167,85,1,9.5,6.88237,8.5,12,33,0,m
7298.710864,81,3,8.6,6.88237,7.3,6,15,7,l
6.762479,83,3,7.5,6.88237,8.009683,9,20,6,s
73.903543,60,1,9.1,7,8.8,8.530885,30,8,l
2169.935772,60,1,9.1,7,8.8,8.530885,30,8,m
2734.446904,85,1,8.7,7.7,7.8,6,30,6,s
123.274681,85,1,9.1,7.2,8.3,8.530885,29,8,m
284.60343,85,1,8.3,6.88237,7.6,8.530885,26.742663,22,l
313.771469,85,1,9.1,7.2,8.3,8.530885,29,5,m
261.427509,60,1,9.1,7,8.8,8.530885,30,7,l
120.300403,85,1,7.1,6.88237,8.009683,8.530885,25,34,s
6110.096765,85,1,7.7,6.4,7.9,8.530885,33,0,s
902.9071,81,1,7.6,7,7.6,8.530885,34,0,s
1120.86201,85,1,7.4,6.6,7.4,10,66,6,s
369.897649,60,1,7.7,6.1,7.2,8.530885,20,10,m
17108.15762,85,1,9.5,6.88237,8.5,12,33,29,s
260.624884,89,1,8.8,7.2,8.5,9,22,18,l
190.877653,85,1,9.1,7.2,8.3,8.530885,29,10,l
163.837562,85,1,9.1,7.2,8.3,8.530885,29,8,l
261.796624,89,1,8.8,7.2,8.5,9,22,11,l
179.723741,85,1,6.9,6.4,6.9,8.530885,33,0,s
191.824353,85,1,9.1,7.2,8.3,8.530885,29,9,l
3512.142899,80,3,8.6,6.88237,7.3,6,15,8,m
63.853699,85,1,7.4,6.88237,7.4,8.530885,10,8,s
229.723669,85,1,8.4,6.88237,8.5,8.530885,15,154,m
4189.331418,85,3,7,5.8,7.1,8.530885,25,100,s
1440.303581,81,1,7.9,6.88237,7.9,9,47,0,s
445.863654,86,1,9,6.88237,8.5,7,22,0,l
127.309634,85,1,9.1,7.2,8.3,8.530885,29,6,l
263.040761,85,1,7.7,6.6,7.6,8,17,8,s
114.375058,85,1,9.1,7.2,8.3,8.530885,29,25,l
45.754241,74,1,7.6,6.3,7.4,10,10,0,s
4619.762265,88,1,8.30368,6.88237,8.009683,8.530885,26.742663,5,s
421.861568,86,1,7.9,6.88237,7.2,8.530885,28,0,s
105.83144,85,1,9.1,7.2,8.3,8.530885,29,9,l
56.309068,85,1,7.7,6.5,7.7,8,48,0,m
6225.577098,80,1,9.1,7.2,8.3,8.530885,29,5,m
116.435674,85,1,9.1,7.2,8.3,8.530885,29,8,m
259.903965,60,1,9.1,7,8.8,8.530885,30,9,l
3481.699781,80,3,8.6,6.88237,7.3,6,15,0,l
3483.132499,80,3,8.6,6.88237,7.3,6,15,0,m
3764.937102,85,1,7.6,6.88237,7.6,8.530885,25,67,s
16951.8633,85,1,8.2,6.88237,8.4,11,25,69,s
93.556703,85,1,9.1,7.2,8.3,8.530885,29,7,l
133.055774,89,1,8.8,7.2,8.5,9,22,11,l
258.667947,85,1,9.1,7.2,8.3,8.530885,29,10,l
278.527381,85,1,8.2,6.88237,8.009683,6,7,0,s
707.910556,60,1,9.1,7,8.8,8.530885,30,13,s
10267.52594,80,1,8.3,6.88237,8.3,11,40,0,m
1249.583594,85,1,9.1,7.2,8.3,8.530885,29,17,s
24.156335,50,1,7,6.88237,8.009683,8,21,7,m
3997.147023,80,1,8.6,6.88237,9.1,8.530885,33,26,m
272.530728,85,1,9.1,7.2,8.3,8.530885,29,8,l
333.319689,85,1,7.7,6.6,7.6,8,17,535,l
5340.430455,80,1,8.1,6.88237,8.2,10,35,11,s
6.582543,85,3,7.5,6.9,7.2,9,10,0,m
236.061128,85,1,9.1,7.2,8.3,8.530885,29,6,m
278.093242,85,1,8.4,6.88237,8.5,8.530885,15,0,l
402.490501,85,1,8.4,6.88237,8.5,8.530885,15,7,s
307.144253,85,1,7.2,6.88237,7.1,8.530885,25,0,s
126.990228,85,1,9.1,7.2,8.3,8.530885,29,7,m
16692.79822,88,1,9.1,7,8.8,8.530885,30,0,s
10821.18736,80,1,8.2,7.6,7.9,8.530885,35,0,s
3649.299751,80,1,8.6,6.88237,9.1,8.530885,33,0,l
132.654696,85,1,9.1,7.2,8.3,8.530885,29,7,m
15488.73204,88,1,8.1,6.88237,8.009683,8.530885,48,6,s
7023.668032,88,1,8.5,7.7,8.1,9,13,0,s
9089.100614,88,1,8.8,7.2,8.5,9,22,0,s
5424.890286,60,1,9.1,7,8.8,8.530885,30,0,m
71.851385,85,1,8.3,6.9,8.1,8.530885,27,6,m
1316.417666,85,1,8.3,7.3,8.1,9,14,0,s
218.297434,85,1,7.7,6.88237,7.7,8.530885,26.742663,14,s
1995.962876,88,3,9.2,6.88237,8.4,10,25,37,s
219.371441,89,1,8.3,6.88237,8.009683,9,22,10,m
64.953221,85,1,8.3,6.88237,8.1,8.530885,15,8,m
2502.090528,60,1,9.1,7,8.8,8.530885,30,9,m
101.811429,85,1,9.1,7.2,8.3,8.530885,29,10,m
263.220514,60,1,9.1,7,8.8,8.530885,30,6,l
49.185754,85,1,8.1,6.88237,8.3,9,45,0,m
6920.422577,88,1,8.1,7.3,8.2,8.530885,10,33,s
535.81012,86,1,9,6.88237,8.5,7,22,455,l
48.490273,83,3,7.5,6.88237,8.009683,9,20,17,s
174.131312,89,1,9.5,6.88237,8.5,12,33,32,m
49.263148,85,1,7.1,6.4,6.9,8.530885,28,12,m
10463.64571,87,1,8,6.7,7.9,8,39,0,s
975.681596,81,1,8.1,6.88237,8.009683,9,19,2,s
1510.17222,81,1,7.6,6.5,7.8,8.530885,13,0,s
182.4325,89,1,8.3,6.88237,8.009683,9,22,0,m
1213.362557,85,1,8.1,6.88237,8.3,9,45,9,s
127.250382,85,1,8.3,6.9,8.1,8.530885,27,5,m
283.092855,85,1,9.1,7.2,8.3,8.530885,29,11,l
9715.437042,88,1,8.3,6.88237,8.009683,9,22,23.263212,s
6306.823515,80,1,9.1,7.2,8.3,8.530885,29,5,m
11016.92142,80,1,9.5,6.88237,8.5,12,33,8,m
4919.317656,80,1,8,7.2,7.8,7,55,0,s
1951.34909,85,1,9,6.88237,8.5,7,22,41,m
101.437591,85,1,9.1,7.2,8.3,8.530885,29,8,m
9666.75829,81,1,9.5,6.88237,8.5,12,33,19,m
4933.051101,85,1,7.9,6.3,7.9,6,48,69,s
18.427125,50,3,7,6.88237,7.2,11,40,9,l
3847.597094,80,3,8.6,6.88237,7.3,6,15,15,l
1037.259202,84,1,7.7,6.6,7.6,8,17,7,m
357.036193,85,1,6.6,6.2,6.6,5,14,12,s
3635.220333,80,3,8.6,6.88237,7.3,6,15,32,m
186.82707,85,1,9.1,7.2,8.3,8.530885,29,10,m
4371.582108,80,1,8.1,7.1,8.1,8.530885,18,0,s
1175.0124,84,1,7.7,6.6,7.6,8,17,10,s
3872.00639,85,3,8.2,6.5,8.1,9,33,9,s
4867.572624,85,1,8,6.4,7.7,6,19,0,s
134.710379,85,1,9.1,7.2,8.3,8.530885,29,13,l
616.40628,85,1,9.1,7.2,8.3,8.530885,29,7,m
960.241428,85,1,7.9,6.6,7.9,5,33,69,s
72.752429,85,1,7.8,6.8,7.7,8,24,0,s
659.612001,87,1,7.7,6.5,7.5,8.530885,14,0,s
371.911462,60,1,7.7,6.1,7.2,8.530885,20,6,m
1388.611118,85,1,7.7,6.5,7.7,8,48,0,s
6091.726563,85,3,9.2,6.88237,8.4,10,25,9,s
5902.426545,60,1,9.1,7,8.8,8.530885,30,19,s
62.347667,74,1,6.2,6.88237,8.009683,8.530885,15,33,m
924.635916,84,1,7.7,6.6,7.6,8,17,800,s
1083.54366,85,1,7.8,6.8,7.7,8,24,0,s
15.699994,84,1,7.1,6.1,7.1,8.530885,32,7,m
134.286252,85,1,9.1,7.2,8.3,8.530885,29,9,m
273.53564,85,1,9.1,7.2,8.3,8.530885,29,8,l
2725.499726,85,3,7.6,6.88237,7.3,8.530885,10,647,s
127.785473,60,1,7.8,6.5,7.3,8.530885,20,7,m
41.732547,89,1,8.8,7.2,8.5,9,22,13,l
4457.419864,60,1,9.1,7,8.8,8.530885,30,10,s
105.204194,85,1,9.1,7.2,8.3,8.530885,29,7,m
1753.177019,60,1,9.1,7,8.8,8.530885,30,9,m
51.38697,50,1,7,6.88237,8.009683,8,21,3,s
99.082385,86,1,9,6.88237,8.5,7,22,12,s
794.971685,86,3,7.5,6.9,7.2,9,10,0,s
181.316125,89,1,8.3,6.88237,8.009683,9,22,24,l
232.042503,85,1,7.7,6.6,7.6,8,17,7,s
83.93177,85,1,8.1,6.88237,8,8.530885,30,20,m
12938.52227,88,1,9.1,7,8.8,8.530885,30,12,s
12264.63248,82,1,8.4,6.7,8.2,8,33,0,s
6767.976761,88,1,7.5,6.88237,8.009683,8.530885,33,12,s
47.83343,83,3,7.5,6.88237,8.009683,9,20,17,m
135.363651,85,1,9.1,7.2,8.3,8.530885,29,8,m
24.664072,50,1,7,6.88237,8.009683,8,21,8,s
529.642525,85,1,8.3,6.88237,8.1,8.530885,15,29,m
165.673721,86,1,8.3,6.88237,8.009683,10,40,101,l
1582.610733,88,1,7.9,6.88237,8.009683,4,14,23.263212,s
188.526885,81,1,8.1,7.1,8.1,8.530885,18,12,m
278.673623,85,1,9.1,7.2,8.3,8.530885,29,9,l
152.11805,84,1,7.4,6.88237,8.009683,8.530885,34,0,s
68.454921,83,3,7.5,6.88237,8.009683,9,20,14,m
5513.667587,80,1,8.3,6.5,7.8,8.530885,10,0,s
16982.1448,85,1,9.1,6.88237,8.7,11,26.742663,41,m
815.531785,85,1,7.1,6.4,6.9,8.530885,28,0,s
181.29603,89,1,8.3,6.88237,8.009683,9,22,16,s
251.491385,85,1,8.2,6.88237,8.009683,6,7,80,s
16965.98026,85,1,9.5,6.88237,8.5,12,33,48,m
4871.411844,88,3,9.2,6.88237,8.4,10,25,8,s
134.243172,85,1,9.1,7.2,8.3,8.530885,29,8,l
116.66465,85,1,9.1,7.2,8.3,8.530885,29,5,m
115.260197,85,1,9.1,7.2,8.3,8.530885,29,18,l
187.596689,83,1,8,6.88237,8,8.530885,70,67,m
17098.17,85,1,9.5,6.88237,8.5,12,33,12,s
6006.170387,87,1,9.1,7.2,8.3,8.530885,29,0,s
848.441165,85,1,9.1,7.2,8.3,8.530885,29,0,m
16600.8609,85,1,8,6.7,7.8,8,40,0,s
263.178562,89,1,8.8,7.2,8.5,9,22,13,l
634.505668,85,1,7.7,6.6,7.6,8,17,0,s
15297.85475,89,1,8.1,7.3,8.2,8.530885,10,10,s
6273.719694,85,1,7.7,6.4,7.9,8.530885,33,32,s
2221.899068,82,1,8.1,7.1,8.1,8.530885,18,0,s
133.425463,85,1,9.1,7.2,8.3,8.530885,29,6,l
749.377974,85,1,7.8,6.8,7.7,8,24,7,s
132.982164,85,1,9.1,7.2,8.3,8.530885,29,7,m
318.169803,89,1,8.1,6.88237,7.5,9,38,23,m
3163.193186,85,1,8,6.4,7.9,6,33,95,s
113.355117,85,1,6.8,6.88237,8.009683,8.530885,40,0,s
709.403936,89,1,8.3,6.88237,8.009683,9,22,20,s
427.582416,85,1,7.6,6.88237,7.3,8.530885,74,0,s
161.214376,82,1,8.1,6.8,7.9,8.530885,24,35,m
132.723203,82,1,6.7,6.88237,8.009683,3,24,0,s
261.422772,60,1,9.1,7,8.8,8.530885,30,8,l
120.965659,50,3,7,6.88237,7.2,11,40,7,s
1701.609833,89,1,8.3,6.88237,8.3,11,40,0,m
182.109111,89,1,8.3,6.88237,8.009683,9,22,15,l
272.079557,85,1,9.1,7.2,8.3,8.530885,29,8,m
2500.029638,60,1,9.1,7,8.8,8.530885,30,7,m
17050.26187,85,1,9.5,6.88237,8.5,12,33,76,s
232.532697,85,1,8.4,6.88237,8.5,8.530885,15,0,l
189.971267,81,1,8.1,7.1,8.1,8.530885,18,17,m
130.238559,85,1,9.1,7.2,8.3,8.530885,29,8,l
7021.274492,73,1,8.3,6.88237,8.6,12,25,81,s
869.602419,88,1,7.7,6.5,7.5,8.530885,14,0,s
79.152536,60,1,7.8,6.5,7.3,8.530885,20,6,m
5823.190624,80,1,7,6.88237,8.009683,8.530885,29,11,s
12.29534,85,3,7.5,6.9,7.2,9,10,6,m
6691.905246,88,1,8.3,6.5,7.8,8.530885,10,0,s
5944.717662,60,1,9.1,7,8.8,8.530885,30,0,m
17074.13058,85,1,9.5,6.88237,8.5,12,33,0,s
2027.993038,60,1,9.1,7,8.8,8.530885,30,11,m
773.415194,86,3,7.5,6.9,7.2,9,10,13,s
718.508021,84,3,7.5,6.9,7.2,9,10,5,s
249.529483,85,1,7.2,6.88237,8.009683,8.530885,40,0,s
181.366413,89,1,8.3,6.88237,8.009683,9,22,15,m
14157.61299,81,1,8.3,6.88237,8.009683,9,22,0,s
119.307927,89,1,7.5,5.8,6.6,4,10,0,m
977.900987,85,1,8.5,7.7,8.1,9,13,5,s
13170.34924,89,1,9.1,7.2,8.3,8.530885,29,0,m
663.931644,86,1,7.8,6.8,7.7,8,24,10,m
6321.562688,88,1,7.2,6.88237,7.2,10,20,0,m
7.760579,89,1,7.5,6.88237,7.5,8,30,0,s
685.286403,87,1,7.9,6.88237,8.009683,4,14,14,s
2578.156257,60,1,9.1,7,8.8,8.530885,30,0,s
2725.499726,85,5,6.4,6.88237,6.4,8.530885,26.742663,647,l
547.443161,85,1,9.1,7.2,8.3,8.530885,29,9,m
124.888111,85,1,9.1,7.2,8.3,8.530885,29,11,m
6778.773641,85,1,7.5,6.4,7.3,8.530885,33,0,s
4875.877787,80,1,8,7.2,7.8,7,55,5,s
129.087963,85,1,9.1,7.2,8.3,8.530885,29,7,m
181.626224,89,1,8.3,6.88237,8.009683,9,22,16,m
78.843337,85,1,9.1,7.2,8.3,8.530885,29,17,l
116.152449,85,1,9.1,7.2,8.3,8.530885,29,7,m
281.491632,85,1,9.1,7.2,8.3,8.530885,29,12,l
183.008615,89,1,8.3,6.88237,8.009683,9,22,9,s
2103.488204,85,1,7.3,6.88237,7.3,8.530885,36,0,s
3848.397999,80,3,8.6,6.88237,7.3,6,15,0,l
181.616883,89,1,8.3,6.88237,8.009683,9,22,16,m
102.508532,85,1,9.1,7.2,8.3,8.530885,29,15,l
11149.72715,80,1,9.5,6.88237,8.5,12,33,8,m
3642.09635,80,1,7.9,6.6,7.6,6,33,47,s
281.713627,85,1,8.4,6.88237,8.5,8.530885,15,0,l
14245.27793,89,1,8.8,7,8,8,35,8,s
98.177695,89,1,8.8,7.2,8.5,9,22,15,l
262.094423,60,1,9.1,7,8.8,8.530885,30,11,l
2056.07681,85,1,9,6.88237,8.5,7,22,0,s
4177.335428,80,1,7.8,6.2,7.2,8.530885,33,11,s
9209.615332,88,1,9.5,6.88237,8.5,12,33,0,s
1747.490756,89,1,8.2,6.88237,8.009683,8,25,20,s
397.288346,85,1,7.2,6.6,7.2,8.530885,26.742663,6,s
168.901411,89,1,8.3,6.88237,8.009683,9,22,11,s
2299.282889,60,1,9.1,7,8.8,8.530885,30,9,m
12.962609,60,3,7.8,6.5,7.5,11,28,2,m
5257.270895,80,1,8.5,7.7,8.1,9,13,0,s
100.753019,85,1,9.1,7.2,8.3,8.530885,29,6,m
988.845829,60,1,9.1,7,8.8,8.530885,30,53,m
1689.822287,60,1,9.1,7,8.8,8.530885,30,14,m
101.459953,86,1,7.2,6.3,7.2,8,27,6,s
9548.277496,81,1,9.1,7.2,8.3,8.530885,29,0,m
465.432259,85,1,7.1,6.3,7.1,8,50,0,s
153.920988,85,1,9.1,7.2,8.3,8.530885,29,26,l
205.066306,85,1,9.1,7.2,8.3,8.530885,29,6,l
97.142693,89,1,8.8,7.2,8.5,9,22,16,l
73.606665,85,1,7.7,6.6,7.6,8,17,77,l
130.579639,85,1,9.1,7.2,8.3,8.530885,29,10,m
105.322588,85,1,7.4,6.88237,7.4,8.530885,26.742663,24,l
140.991186,89,1,8.3,6.88237,8.009683,9,22,10,m
854.610898,85,1,9.1,7.2,8.3,8.530885,29,25,m
274.842942,86,1,7.6,6.3,7.4,8.530885,24,0,s
7220.83699,85,3,7.7,6,7.2,9,2,0,s
4286.952642,85,3,7,5.8,7.1,8.530885,25,0,s
302.801212,81,1,8.1,7.1,8.1,8.530885,18,23,l
61.869566,50,3,7.7,6.88237,7.8,9,20,6,m
9760.4761,88,1,8.1,6.88237,8.009683,9,19,8,s
5032.800145,87,1,8.4,6.88237,8.5,8.530885,15,0,s
44.092836,85,1,8.3,6.88237,8.1,8.530885,15,0,m
6226.793929,80,1,9.1,7.2,8.3,8.530885,29,4,m
266.185976,85,1,6.7,6.88237,8.009683,8.530885,10,18,s
260.240285,87,3,9.2,6.88237,8.4,10,25,62,l
8568.680231,88,1,8,7.2,7.8,7,55,0,s
10112.98353,88,1,8.1,6.88237,8.009683,9,19,12,s
3805.412492,80,3,8.6,6.88237,7.3,6,15,0,l
68.518416,83,3,7.5,6.88237,8.009683,9,20,13,m
124.860683,85,1,9.1,7.2,8.3,8.530885,29,10,l
19.083979,81,1,8,6.88237,8,8.530885,33,7,l
220.014214,60,1,7.7,6.1,7.2,8.530885,20,10,l
3584.00563,80,3,8.6,6.88237,7.3,6,15,0,s
3666.938901,80,1,8.6,6.88237,9.1,8.530885,33,21,m
21.485877,88,1,7.7,6.5,7.5,8.530885,14,19,m
283.952438,85,1,8.4,6.88237,8.5,8.530885,15,87,m
262.50123,60,1,9.1,7,8.8,8.530885,30,9,l
263.783609,60,1,9.1,7,8.8,8.530885,30,7,l
15378.43308,89,1,8.3,6.5,7.8,8.530885,10,10,s
43.956874,60,1,7.8,6.5,7.3,8.530885,20,5,l
131.720889,85,1,9.1,7.2,8.3,8.530885,29,7,s
6256.800102,88,1,7.9,6.6,7.9,5,33,0,s
127.99804,85,1,9.1,7.2,8.3,8.530885,29,9,l
421.610434,85,1,9.1,7.2,8.3,8.530885,29,7,s
234.659803,85,1,9.1,7.2,8.3,8.530885,29,11,l
21.158385,74,3,7.1,6.88237,8.009683,9,15,0,l
206.488374,60,1,6.9,6.88237,8.009683,4,25,0,s
68.073055,85,3,7.5,6.9,7.2,9,10,0,m
457.610052,85,1,6.9,6.7,6.9,8.530885,10,62,s
9773.769101,89,1,8.1,7.1,8.1,8.530885,18,0,s
92.548776,85,1,7.3,6.6,7.3,8.530885,51,0,s
66.860087,85,1,8.3,6.9,8.1,8.530885,27,5,m
64.707449,85,1,7.7,6.8,7.7,8,44,0,s
46.26664,74,1,7.6,6.3,7.4,10,10,0,s
123.668043,89,1,7.5,5.8,6.6,4,10,10,l
1082.827803,88,1,7.7,6.5,7.5,8.530885,14,0,s
439.244569,85,1,9.1,7.2,8.3,8.530885,29,0,m
545.074913,86,1,7.6,6.5,7.6,6,33,0,s
98.1321,89,1,8.8,7.2,8.5,9,22,19,l
66.469019,87,1,7.9,6.88237,8.009683,6,109,34,s
260.301835,60,1,9.1,7,8.8,8.530885,30,10,s
1525.908392,85,1,8.2,6.88237,7.8,9,30,72,s
6322.970591,85,1,7.7,6.4,7.9,8.530885,33,0,s
4134.393268,88,1,7.9,6.6,7.6,6,33,0,s
17055.37111,85,1,9.5,6.88237,8.5,12,33,18,s
51.7038,60,1,7.8,6.5,7.3,8.530885,20,11,s
10877.15721,81,1,8.2,6.88237,8.009683,9,47,12,s
14691.03351,89,1,8.8,7,8,8,35,10,s
228.184805,85,1,7.4,6.6,7.4,10,66,22,s
87.053222,85,1,9.1,7.2,8.3,8.530885,29,8,m
223.837503,85,1,8.4,6.88237,8.5,8.530885,15,110,l
3556.144764,82,1,8.1,6.5,7.7,8.530885,10,0,s
111.637134,85,1,9.1,7.2,8.3,8.530885,29,27,s
3581.838105,80,3,8.6,6.88237,7.3,6,15,0,m
840.319505,85,1,8.1,6.88237,8.3,9,45,26,m
49.882725,83,3,7.5,6.88237,8.009683,9,20,20,m
5737.301814,80,1,8.3,7.3,8.1,9,14,0,s
99.307679,85,1,9.1,7.2,8.3,8.530885,29,7,s
43.400529,50,1,6.9,6.88237,8.009683,9,6,0,s
137.924445,85,1,9.1,7.2,8.3,8.530885,29,8,m
45.15381,82,1,8.1,6.8,7.9,8.530885,24,9,s
39.348832,85,1,7.9,6.88237,7.9,8.530885,35,16,l
11177.89237,80,1,9.5,6.88237,8.5,12,33,7,m
1236.264717,60,1,8.5,6.88237,8.5,9,70,7,m
5121.675934,80,3,6.4,6.88237,6.8,8.530885,33,11,s
24.509263,50,1,7,6.88237,8.009683,8,21,7,s
187.659287,88,1,7.6,5.4,7.7,8.530885,30,7,l
120.73572,85,1,9.1,7.2,8.3,8.530885,29,10,l
2725.499726,85,1,8.3,6.88237,8.1,8.530885,15,647,m
6432.41402,88,1,8.1,6.88237,7.5,9,38,5,s
848.931119,60,1,8.6,7.4,8.5,8.530885,20,0,s
16744.41367,85,1,9.5,6.88237,8.5,12,33,0,m
2725.499726,85,1,8.7,7.7,7.8,6,30,647,s
24.518853,50,1,7,6.88237,8.009683,8,21,7,s
83.006638,85,1,8.3,6.9,8.1,8.530885,27,9,m
15627.08546,85,1,8.1,6.6,7.6,9,13,0,s
24.295612,81,3,5.5,6.88237,8.009683,8.530885,25,0,s
343.743452,85,1,7.2,6.7,7,8.530885,14,0,s
17636.92155,85,1,9.5,6.88237,8.5,12,33,76,m
10084.82742,81,1,8,6.7,7.9,8,39,0,s
95.738574,85,1,9.1,7.2,8.3,8.530885,29,6,m
7329.156772,88,1,9.1,7.2,8.3,8.530885,29,9,s
93.852654,85,1,9.1,7.2,8.3,8.530885,29,3,l
36.581787,89,1,8.8,7.2,8.5,9,22,25,l
145.437233,82,1,7.9,6.88237,8.009683,9,135,0,s
207.946578,85,1,9.1,7.2,8.3,8.530885,29,10,m
119.295986,85,1,9.1,7.2,8.3,8.530885,29,7,l
181.399268,89,1,8.3,6.88237,8.009683,9,22,13,s
94.933758,89,1,8.2,6.88237,8.009683,8,25,14,m
207.483371,85,1,9.1,7.2,8.3,8.530885,29,10,l
431.409759,85,1,9.1,7.2,8.3,8.530885,29,12,m
122.337823,85,1,9.1,7.2,8.3,8.530885,29,10,s
29.754398,82,1,7.1,6.4,7.1,8.530885,25,12,s
15568.23278,89,1,8.8,7,8,8,35,0,s
2503.009095,60,1,9.1,7,8.8,8.530885,30,0,s
85.565792,80,1,7.9,6.88237,8.009683,10,26.742663,20,l
68.642783,50,1,6.8,6.88237,8.009683,8,14,0,s
6021.529945,85,1,7.7,6.4,7.9,8.530885,33,12,s
6100.950405,85,1,7.7,6.4,7.9,8.530885,33,52,s
5299.905969,88,1,8.8,7,8,8,35,9,s
21.101924,74,1,6.3,6.3,6.1,8.530885,14,23,s
133.703601,88,1,7.3,6.88237,8.009683,8.530885,28,4,s
59.493573,85,1,8.1,6.88237,8.3,9,45,22,m
220.962771,89,1,8.3,6.88237,8.009683,9,22,27,l
350.534117,85,1,9.1,7.2,8.3,8.530885,29,112,m
168.913546,85,1,7.5,6.88237,7.5,8.530885,0,26,s
14.122787,74,3,7,6.8,7.3,8.530885,13,8,m
87.127073,85,1,9.1,7.2,8.3,8.530885,29,21,l
1775.092705,85,1,8.3,6.88237,8.009683,10,40,8,s
6688.158746,88,1,8.3,6.5,7.8,8.530885,10,0,s
9406.885609,81,1,9.1,7.2,8.3,8.530885,29,8,m
261.573045,89,1,8.8,7.2,8.5,9,22,6,l
1656.541292,60,1,9.1,7,8.8,8.530885,30,11,l
5974.85538,60,1,9.1,7,8.8,8.530885,30,6,m
3624.928576,80,1,7.6,6.88237,8.009683,8,33,0,s
100.308615,60,1,9.1,7,8.8,8.530885,30,0,m
9691.078809,88,1,8.8,7.2,8.5,9,22,0,s
6120.194706,81,1,9.1,7,8.8,8.530885,30,0,s
210.219699,81,1,8.1,7.1,8.1,8.530885,18,27,m
86.600082,85,1,8.3,6.88237,8.1,8.530885,15,12,m
16766.89037,85,1,9.5,6.88237,8.5,12,33,0,m
192.666646,85,1,8.2,6.88237,8.009683,6,7,0,l
18828.51958,85,1,8.5,6.88237,8.3,11,70,117,s
181.397213,89,1,8.3,6.88237,8.009683,9,22,15,s
5604.024891,80,1,8.1,6.88237,8.2,10,35,0,s
194.604703,85,1,8,6.88237,8,5,26.742663,10,m
200.823192,85,1,9.1,7.2,8.3,8.530885,29,8,m
2061.597835,85,1,9,6.88237,8.5,7,22,19,m
456.512592,85,1,7.4,6.3,7.2,10,56,72,s
4111.785502,81,1,8.1,7.1,8.1,8.530885,18,0,s
17067.76468,85,1,9.5,6.88237,8.5,12,33,4,s
129.508366,85,1,9.1,7.2,8.3,8.530885,29,8,m
66.753227,82,1,7.6,6.5,7.8,8.530885,13,11,s
30.330392,50,1,7,6.88237,8.009683,8,21,9,m
98.461553,85,1,8.3,6.9,8.1,8.530885,27,0,m
5134.415928,60,1,9.1,7,8.8,8.530885,30,6,l
267.626386,85,1,8.4,6.88237,8.5,8.530885,15,0,l
3781.018548,80,1,8.6,6.88237,9.1,8.530885,33,11,m
51.150815,85,3,7.5,6.9,7.2,9,10,8,l
1138.188733,85,1,8.3,6.5,7.8,8.530885,10,0,s
94.340445,88,1,8.2,6.88237,8.009683,9,47,0,m
81.670499,85,1,9.1,7.2,8.3,8.530885,29,32,s
282.742924,85,1,8.2,6.88237,8.009683,6,7,44,s
600.544144,85,1,7.1,6.4,6.9,8.530885,28,0,s
22.571908,84,1,6.6,6.2,6.6,7,26,12,s
139.810576,82,1,8,6.88237,8,8.530885,26.742663,352,m
280.33277,85,1,6.9,6.4,6.7,10,44,0,s
46.898201,85,1,7,6.88237,7,8.530885,26.742663,12,m
80.097371,85,1,8.1,6.88237,8,8.530885,30,326,m
3490.22012,80,3,8.6,6.88237,7.3,6,15,25,m
90.567698,85,1,9.1,7.2,8.3,8.530885,29,6,l
1498.067978,85,1,7.7,6.5,7.7,8,48,95,s
703.97736,85,1,8.3,7.3,8.1,9,14,0,s
209.589583,85,1,8.3,6.88237,8.1,8.530885,15,0,l
201.638703,85,1,7,6.2,7,8.530885,29,69,s
118.183409,88,1,7.6,5.4,7.7,8.530885,30,5,l
159.916629,85,1,8.3,6.88237,8.1,8.530885,15,0,l
246.510588,82,1,7,6.88237,7.3,8.530885,13,0,s
272.56783,85,1,9.1,7.2,8.3,8.530885,29,7,l
6581.748193,88,1,8.3,7.3,8.1,9,14,0,s
255.230295,60,1,9.1,7,8.8,8.530885,30,12,l
13203.25701,89,1,9.1,7.2,8.3,8.530885,29,4,m
10973.25321,88,1,8.8,7,8,8,35,0,s
181.438443,89,1,8.3,6.88237,8.009683,9,22,14,s
1627.164712,60,1,7.7,6.1,7.2,8.530885,20,4,s
17378.1706,85,1,9.5,6.88237,8.5,12,33,730,s
62.476957,82,1,7.9,6.88237,7.9,8.530885,35,41,m
95.968275,50,3,7.7,6.88237,7.8,9,20,0,m
230.045274,85,1,8.4,6.88237,8.5,8.530885,15,0,m
118.66698,87,3,9.2,6.88237,8.4,10,25,0,l
41.3288,82,1,8.1,6.8,7.9,8.530885,24,0,s
254.544437,60,1,7.8,5.7,7.2,8.530885,18,95,l
7465.138279,88,1,9.1,7.2,8.3,8.530885,29,12,s
7.087626,85,3,7.5,6.9,7.2,9,10,5,m
33.901876,82,3,7,5.8,7.1,8.530885,25,8,m
181.354065,89,1,8.3,6.88237,8.009683,9,22,7,s
116.549148,88,1,7.6,5.4,7.7,8.530885,30,7,l
10658.82807,80,1,9.5,6.88237,8.5,12,33,30,m
3669.568718,60,1,8.6,7.4,8.5,8.530885,20,0,s
111.67373,85,1,9.1,7.2,8.3,8.530885,29,4,m
3633.234352,80,3,8.6,6.88237,7.3,6,15,28,m
164.126528,88,1,8.2,6.88237,8.009683,9,47,0,m
488.168682,85,1,7.7,6.5,7.7,8,48,145,s
153.292782,85,1,9.1,7.2,8.3,8.530885,29,10,l
67.318203,83,3,7.5,6.88237,8.009683,9,20,17,l
182.033666,89,1,8.3,6.88237,8.009683,9,22,5,m
100.347518,85,1,9.1,7.2,8.3,8.530885,29,8,m
258.401214,85,1,7.7,6.88237,7.7,8.530885,26.742663,0,m
1808.165229,60,1,9.1,7,8.8,8.530885,30,6,l
17225.73058,85,1,8.3,6.88237,8.009683,9,22,0,s
21.337621,88,1,7.7,6.5,7.5,8.530885,14,57,l
17018.1479,85,1,9.5,6.88237,8.5,12,33,27,s
16917.53308,85,1,9.5,6.88237,8.5,12,33,0,m
0,60,1,8.30368,6.88237,8.009683,5,26.742663,6,l
507.205666,81,1,8.1,7.7,8.2,8.530885,25,0,s
5979.541044,80,1,9.1,7.2,8.3,8.530885,29,6,s
281.089647,85,1,8,6.88237,8,5,26.742663,9,s
93.415664,85,1,9.1,7.2,8.3,8.530885,29,7,m
160.158892,85,1,8,6.88237,8,5,26.742663,0,m
6043.975572,85,1,7.9,5.8,7.9,8.530885,33,8,s
183.872928,89,1,8.3,6.88237,8.009683,9,22,0,s
96.526763,85,1,9.1,7.2,8.3,8.530885,29,8,m
1732.336275,60,1,9.1,7,8.8,8.530885,30,11,l
1141.977303,88,1,7.9,6.88237,8.009683,4,14,0,s
467.007466,82,1,8.1,6.8,7.9,8.530885,24,0,m
63.569565,85,3,7.5,6.9,7.2,9,10,7,m
6980.323403,88,1,8,6.7,7.9,8,39,0,s
97.017829,85,1,9.1,7.2,8.3,8.530885,29,8,m
11206.85751,81,1,8.2,6.88237,8.009683,9,47,7,s
4764.702942,84,1,8.8,7,8,8,35,20,s
6466.015985,88,1,8.1,6.88237,7.5,9,38,0,s
206.784873,88,1,7.6,5.4,7.7,8.530885,30,16,m
6864.378415,73,1,8.6,8,8.6,11,33,771,s
262.761612,60,1,9.1,7,8.8,8.530885,30,8,l
579.518749,85,1,9.1,7.2,8.3,8.530885,29,5,m
185.317244,50,1,8.30368,6.88237,8.009683,9,26.742663,7,s
154.025272,85,1,7.3,6.4,7.3,8.530885,32,0,s
12679.63819,89,1,7.9,6.4,7.4,8,24,0,s
148.818655,60,1,8.4,6.9,8.5,8.530885,34,5,m
134.267595,85,1,9.1,7.2,8.3,8.530885,29,6,m
1053.219862,84,1,7.7,6.6,7.6,8,17,0,m
48.465907,83,3,7.5,6.88237,8.009683,9,20,13,m
130.389235,85,1,9.1,7.2,8.3,8.530885,29,5,l
16968.30482,85,1,9.5,6.88237,8.5,12,33,0,m
4727.055045,85,1,8.6,6.88237,9.1,8.530885,33,91,s
49.131767,75,0,8.30368,6.88237,8.009683,8.530885,26.742663,183,m
3084.315071,85,1,9,6.88237,8.5,7,22,0,s
301.057361,85,1,9.1,7.2,8.3,8.530885,29,4,l
10907.09894,80,1,8.2,6.88237,8.4,11,25,0,s
182.228115,89,1,8.3,6.88237,8.009683,9,22,10,m
69.289952,83,3,7.5,6.88237,8.009683,9,20,5,s
3029.516243,88,3,8.6,6.88237,7.3,6,15,5,s
1647.436385,73,1,8.5,6.88237,8.009683,11,26.742663,33,m
263.3725,85,1,8.1,6.88237,8.3,9,45,0,m
9102.740387,81,1,9.1,7,8.8,8.530885,30,7,s
2725.499726,85,1,7.9,6.88237,7.9,8.530885,35,647,l
3559.366484,80,3,8.6,6.88237,7.3,6,15,8,m
843.414539,81,1,7.2,6.88237,8.009683,8.530885,34,0,s
13170.35524,89,1,9.1,7.2,8.3,8.530885,29,0,m
10058.72467,81,1,9.1,7,8.8,8.530885,30,36,s
66.963409,73,1,5.8,6.88237,5.6,10,10,699,s
99.088906,85,1,9.1,7.2,8.3,8.530885,29,5,l
12.742463,50,1,6.6,6.88237,8.009683,7,7,6,m
412.056948,85,1,8.3,7.3,8.1,9,14,4,s
17058.53539,85,1,9.5,6.88237,8.5,12,33,0,s
237.64392,85,1,9.1,7.2,8.3,8.530885,29,13,l
129.318701,85,1,9.1,7.2,8.3,8.530885,29,9,m
240.614011,85,1,9.1,7.2,8.3,8.530885,29,11,l
93.028859,85,1,9.1,7.2,8.3,8.530885,29,8,l
17107.69642,85,1,9.5,6.88237,8.5,12,33,0,m
9471.601909,88,1,7.6,6.4,7.3,8.530885,45,0,s
166.399359,82,1,7.5,6.88237,8.009683,8.530885,10,0,s
51.146578,85,3,7.5,6.9,7.2,9,10,7,l
4106.093441,81,3,7.7,6,7.2,9,2,0,s
4426.286437,80,3,9.2,6.88237,8.4,10,25,0,s
60.823315,82,1,8.1,6.8,7.9,8.530885,24,16,l
5000.057394,60,1,9.1,7,8.8,8.530885,30,6,l
181.610234,89,1,8.3,6.88237,8.009683,9,22,16,m
9303.74435,88,1,8.3,6.88237,8.009683,9,22,0,s
19.284909,83,3,7.8,6.88237,7.8,8.530885,26.742663,0,l
14865.65991,85,1,7.9,6.88237,7.8,10,43,69,s
83.315372,85,1,9.1,7.2,8.3,8.530885,29,29,s
2266.50055,81,1,7.5,6.88237,8.009683,8.530885,10,0,s
3582.696497,80,3,8.6,6.88237,7.3,6,15,13,l
988.912888,85,1,8.5,7.7,8.1,9,13,45,s
291.844084,85,1,8.3,6.9,8.1,8.530885,27,9,s
23.894975,50,1,7,6.88237,8.009683,8,21,4,m
240.117245,85,1,9.1,7.2,8.3,8.530885,29,13,l
5880.601661,88,1,8.3,6.5,7.8,8.530885,10,0,s
17923.98107,85,1,9.5,6.88237,8.5,12,33,5,s
3924.539278,85,3,7,5.8,7.1,8.530885,25,34,s
86.600082,85,1,8.3,6.88237,8.1,8.530885,15,12,m
6502.641011,85,1,7.9,5.8,7.9,8.530885,33,4,s
464.131897,85,1,9.1,7.2,8.3,8.530885,29,4,m
40.549443,50,1,7,6.88237,8.009683,8,21,3,m
72.513582,60,1,7.8,6.5,7.3,8.530885,20,17,m
671.224061,82,1,7.9,6.3,7.9,6,48,0,s
596.508622,85,1,8.2,6.88237,8.009683,6,7,0,s
65.143544,83,3,7.5,6.88237,8.009683,9,20,0,l
116.814863,86,1,8.8,7,8,8,35,57,s
2725.499726,89,1,8.30368,6.88237,8.009683,8.530885,26.742663,0,s
59.13573,50,3,7.7,6.88237,7.8,9,20,4,m
78.801291,85,1,6.7,6,6.6,8.530885,49,91,s
82.78337,85,1,9.1,7.2,8.3,8.530885,29,11,s
134.450401,85,1,9.1,7.2,8.3,8.530885,29,8,m
181.7354,89,1,8.3,6.88237,8.009683,9,22,16,m
15128.13118,85,1,8.1,6.6,7.6,9,13,0,s
244.89986,85,1,8.4,6.88237,8.5,8.530885,15,45,l
1504.93461,89,1,8,6.6,7.3,7,46,0,s
156.507284,88,1,7.3,6.88237,8.009683,8.530885,28,0,s
104.066869,85,1,6.2,5.8,6.2,8,15,0,s
93.650169,84,1,7.1,6,7.1,7,46,7,s
13303.44676,89,1,9.1,7.2,8.3,8.530885,29,0,m
74.214657,85,1,7.4,6.88237,7.4,8.530885,26.742663,0,m
28.231608,83,1,7.9,6.3,7.6,6,24,12,m
1061.538159,86,1,7.3,6.88237,7.3,8.530885,40,0,s
200.607841,85,1,9.1,7.2,8.3,8.530885,29,6,m
13310.73836,89,1,9.1,7.2,8.3,8.530885,29,0,m
97.158715,85,1,9.1,7.2,8.3,8.530885,29,5,l
4990.771132,80,1,9,6.88237,8.5,7,22,0,m
1329.692302,85,1,8.3,7.3,8.1,9,14,7,s
4447.944699,80,3,9.2,6.88237,8.4,10,25,0,m
10060.38863,82,1,7.7,6.5,7.5,8.530885,14,0,s
181.394288,89,1,8.3,6.88237,8.009683,9,22,8,s
2725.499726,85,1,8.3,6.88237,8.1,8.530885,15,647,m
11880.25682,81,3,9.2,6.88237,8.4,10,25,0,s
90.261914,85,1,9.1,7.2,8.3,8.530885,29,6,l
10757.95964,80,1,8.2,6.88237,8.4,11,25,33,m
434.287089,85,1,5.1,5.7,5.1,8.530885,23,0,s
893.835112,71,1,7.7,6.88237,8.009683,8.530885,10,0,s
633.351639,85,1,9.1,7.2,8.3,8.530885,29,4,m
2725.499726,81,1,8.5,6.88237,8.3,11,70,647,s
3695.257073,80,1,8.6,6.88237,9.1,8.530885,33,3,s
124.566513,88,1,7.6,5.4,7.7,8.530885,30,21,l
121.091056,85,1,9.1,7.2,8.3,8.530885,29,6,m
1256.776098,85,0,8.30368,4.9,8.009683,8.530885,10,87,s
96.585561,85,1,9.1,7.2,8.3,8.530885,29,0,l
101.21262,85,1,8.1,6.88237,8.3,9,45,6,s
50.11175,82,1,8.1,6.8,7.9,8.530885,24,16,l
138.920216,74,1,7.5,6.2,7.5,9,5,2,s
70.159728,50,3,7.7,6.88237,7.8,9,20,4,m
365.559143,85,1,9.1,7.2,8.3,8.530885,29,8,m
53.625974,50,1,6.9,6.2,6.9,9,10,29,s
182.483767,89,1,8.3,6.88237,8.009683,9,22,9,m
97.962273,85,1,9.1,7.2,8.3,8.530885,29,8,s
51.805136,83,3,7.5,6.88237,8.009683,9,20,10,m
3135.905209,88,3,8.6,6.88237,7.3,6,15,0,s
82.363826,60,1,7.8,6.5,7.3,8.530885,20,6,s
47.93856,85,3,7.5,6.9,7.2,9,10,5,l
538.554948,89,1,8,6.6,7.3,7,46,8,s
803.295811,85,3,6.8,6.3,6.9,8.530885,20,0,s
262.223226,85,1,7.8,6.4,7.5,9,27,0,s
64.236743,85,1,6.4,6.1,8.009683,8.530885,40,46,s
321.362286,82,1,7.4,6.88237,8.009683,8.530885,39,0,s
260.291847,85,1,9.1,7.2,8.3,8.530885,29,5,s
15355.20604,85,1,8.1,6.6,7.6,9,13,0,s
167.114709,81,1,8.1,7.1,8.1,8.530885,18,17,m
68.72962,85,1,8.2,6.88237,8.2,8.530885,26.742663,11,l
2725.499726,84,1,6.7,6.3,6.6,8,11,647,s
4447.082823,60,1,9.1,7,8.8,8.530885,30,7,m
106.196785,85,1,9.1,7.2,8.3,8.530885,29,8,l
50.707581,85,3,7.5,6.9,7.2,9,10,0,l
151.57586,85,1,6.8,6.3,7.3,8.530885,14,8,s
1925.718977,85,1,8.8,7,8,8,35,0,s
1747.620137,60,1,9.1,7,8.8,8.530885,30,11,l
187.905877,81,1,8.1,7.1,8.1,8.530885,18,15,l
1037.528004,84,1,7.7,6.6,7.6,8,17,6,m
568.824856,60,1,9.1,7,8.8,8.530885,30,12,l
3537.415812,80,1,8.6,6.88237,9.1,8.530885,33,0,l
8529.123509,88,1,8.3,6.88237,8.3,8.530885,25,12,s
347.316504,85,1,7.7,6.6,7.6,8,17,0,s
8026.214613,71,1,8.1,6.88237,8.009683,9,19,0,s
5858.312171,60,1,9.1,7,8.8,8.530885,30,0,m
129.498438,88,1,7.2,6.88237,8.009683,8,24,8,s
257.878263,85,1,9.1,7.2,8.3,8.530885,29,11,l
1810.509486,60,1,9.1,7,8.8,8.530885,30,10,l
2011.896294,85,1,9,6.88237,8.5,7,22,0,m
364.193514,89,1,7.9,6.88237,7.8,10,43,0,s
271.768719,85,1,9.1,7.2,8.3,8.530885,29,4,m
261.497726,89,1,8.8,7.2,8.5,9,22,5,l
1728.239615,87,1,8.8,7,8,8,35,0,s
123.990481,85,1,9.1,7.2,8.3,8.530885,29,11,m
3635.528071,80,3,8.6,6.88237,7.3,6,15,18,s
1395.496278,60,1,8.4,6.9,8.5,8.530885,34,0,s
2893.959433,85,1,8.3,6.5,7.8,8.530885,10,4,s
13558.54213,88,1,8.1,6.88237,8.009683,8.530885,48,33,s
104.710858,85,1,9.1,7.2,8.3,8.530885,29,8,m
17231.95972,85,1,9.5,6.88237,8.5,12,33,7,s
181.827288,89,1,8.3,6.88237,8.009683,9,22,0,l
335.442635,82,1,7.1,6.5,7,8.530885,34,0,s
8267.612919,88,1,8.1,6.88237,8.3,9,45,9,s
8116.167041,82,1,8.8,7,8,8,35,0,s
51.965783,86,1,8.4,6.88237,8.3,11,15,0,l
4813.585566,80,1,8.8,7,8,8,35,47,s
4448.512013,80,3,9.2,6.88237,8.4,10,25,0,m
426.111383,85,1,8.1,6.88237,8.3,9,45,44,s
335.719585,85,1,7.7,6.6,7.6,8,17,10,s
3082.503748,85,1,8.3,6.88237,8.3,10,20,91,s
5299.242627,80,1,7.7,6.88237,6.9,8.530885,25,11,s
168.292413,81,1,8.1,7.1,8.1,8.530885,18,10,m
68.057467,60,3,7.8,6.5,7.5,11,28,4,l
11176.10728,80,1,9.5,6.88237,8.5,12,33,0,s
184.013503,89,1,8.3,6.88237,8.009683,9,22,5,s
1014.558268,85,1,8.4,6.88237,8.5,8.530885,15,0,s
17410.34479,85,1,8.3,6.88237,8.009683,9,22,67,s
17022.18754,85,1,8,6.7,7.8,8,40,20,s
782.07756,85,1,7.7,6.6,7.6,8,17,7,s
183.005455,89,1,8.3,6.88237,8.009683,9,22,9,s
729.043804,85,1,7,6.88237,7,8.530885,26.742663,84,s
12.989307,50,1,7.3,6.88237,7.1,10,60,7,l
8975.363327,81,1,9.5,6.88237,8.5,12,33,51,s
181.477304,89,1,8.3,6.88237,8.009683,9,22,20,s
374.451308,85,1,8.4,6.88237,8.5,8.530885,15,0,s
4288.201967,80,1,7.9,6.7,7.6,6,10,0,s
112.960353,85,1,6.8,6.88237,8.009683,8.530885,40,0,s
43.966177,89,1,8.3,6.88237,8.009683,9,22,6,m
2504.74591,60,1,9.1,7,8.8,8.530885,30,13,l
11153.40752,80,1,9.5,6.88237,8.5,12,33,5,m
134.33501,85,1,9.1,7.2,8.3,8.530885,29,7,m
90.851483,86,1,7,6.3,7,7,44,27,s
138.492565,89,3,8.2,6.88237,8.6,9,60,6,m
324.45573,60,1,8.6,7.2,8.4,8.530885,30,7,m
261.950731,85,1,8.3,6.88237,8.1,8.530885,15,42,l
1320.210099,89,1,7.6,6.8,7.7,8.530885,35,8,s
3788.119043,80,1,8.6,6.88237,9.1,8.530885,33,5,m
182.452303,89,1,8.3,6.88237,8.009683,9,22,25,m
10527.79769,89,1,8.6,6.88237,9.1,8.530885,33,0,s
4446.245364,60,1,8.4,6.9,8.5,8.530885,34,0,s
3632.231134,80,3,8.6,6.88237,7.3,6,15,98,m
3081.046943,85,1,8.7,7.7,7.8,6,30,0,s
110.574365,85,1,8.3,6.9,8.1,8.530885,27,8,m
1482.584095,85,1,8.3,6.5,7.8,8.530885,10,0,s
394.004996,85,1,8.2,6.88237,8.009683,6,7,0,s
181.345418,89,1,8.3,6.88237,8.009683,9,22,18,s
41.586661,82,1,7.1,6.4,7.1,8.530885,25,11,s
152.669556,85,1,9.1,7.2,8.3,8.530885,29,3,l
2776.67512,60,1,9.1,7,8.8,8.530885,30,0,s
120.709766,85,1,9.1,7.2,8.3,8.530885,29,7,l
268.661698,85,1,9.1,7.2,8.3,8.530885,29,9,m
59.701738,60,1,7.8,6.5,7.3,8.530885,20,17,s
28.027021,83,1,7.9,6.3,7.6,6,24,0,m
7569.816592,81,1,8,6.6,7.3,7,46,10,s
100.63238,85,1,7,6.88237,8.009683,8.530885,80,6,s
10637.34028,80,1,9.5,6.88237,8.5,12,33,10,m
13315.88947,89,1,9.1,7.2,8.3,8.530885,29,22,m
9228.570614,81,1,9.1,7.2,8.3,8.530885,29,0,s
60.028247,83,3,7.5,6.88237,8.009683,9,20,10,m
54.453767,85,1,7.7,6.5,7.7,8,48,29,m
234.869531,85,1,7,6.88237,8.009683,8.530885,10,0,s
114.873686,85,1,9.1,7.2,8.3,8.530885,29,4,m
1355.029468,87,1,7.8,6.88237,8.009683,8,28,23.263212,s
181.309634,89,1,8.3,6.88237,8.009683,9,22,14,s
1824.801797,85,1,7.4,7,7.5,8.530885,14,0,s
1783.540519,60,1,9.1,7,8.8,8.530885,30,6,m
294.922103,85,1,6.7,6,6.7,4,43,19,s
3200.754271,88,3,9.2,6.88237,8.4,10,25,10,m
265.217541,85,1,7.8,6.4,7.5,9,27,7,s
121.845121,85,1,9.1,7.2,8.3,8.530885,29,11,l
7596.475203,81,1,9.5,6.88237,8.5,12,33,0,s
63.586588,73,1,4.4,5,4.4,8.530885,30,24,s
3491.314105,88,1,8.1,6.88237,7.5,9,38,0,s
235.748473,85,1,6.5,6.88237,8.009683,8.530885,20,69,s
3002.432212,87,1,9,6.88237,8.5,7,22,0,s
1321.038516,87,1,7.8,6.88237,8.009683,8.530885,19,23.263212,s
380.83554,89,1,7.5,5.8,6.6,4,10,0,s
1447.893676,81,1,8.1,6.88237,8.009683,9,19,5,s
413.013219,85,1,8.1,6.88237,8,8.530885,30,7,m
17466.78558,85,1,9.5,6.88237,8.5,12,33,9,s
181.552326,89,1,8.3,6.88237,8.009683,9,22,12,l
181.715941,89,1,8.3,6.88237,8.009683,9,22,15,l
17018.58037,85,1,9.5,6.88237,8.5,12,33,26,s
174.598998,85,1,7.7,6.6,7.6,8,17,0,s
11127.89209,81,1,9.5,6.88237,8.5,12,33,0,s
1888.960309,81,1,7.7,6.88237,8.009683,7,10,0,s
2522.100038,60,1,9.1,7,8.8,8.530885,30,6,m
13.742546,82,1,7.1,6.4,7.1,8.530885,25,0,m
4753.128879,85,1,7.9,6.88237,7.9,9,47,46,s
181.472843,89,1,8.3,6.88237,8.009683,9,22,20,s
48.09231,85,1,7,6.88237,8.009683,8.530885,60,0,s
202.005269,85,1,7.3,6.5,7.1,8.530885,33,0,s
5919.995652,80,1,9.1,7.2,8.3,8.530885,29,12,m
336.171913,50,3,7.7,6.88237,7.8,9,20,122,s
16988.97219,85,1,9.5,6.88237,8.5,12,33,94,l
119.231584,85,1,9.1,7.2,8.3,8.530885,29,11,l
124.876998,85,1,9.1,7.2,8.3,8.530885,29,10,l
1741.969343,60,1,9.1,7,8.8,8.530885,30,11,l
15181.3254,75,1,9.1,7,8.8,8.530885,30,0,s
240.357532,60,1,7.8,5.7,7.2,8.530885,18,8,l
1046.546809,84,1,7.7,6.6,7.6,8,17,0,m
5979.769069,80,1,9.1,7.2,8.3,8.530885,29,4,m
182.579807,89,1,8.3,6.88237,8.009683,9,22,5,s
69.541595,83,3,7.5,6.88237,8.009683,9,20,11,m
2994.240615,85,1,7.6,6.88237,8.009683,7,32,16,s
5088.61441,85,3,7,5.8,7.1,8.530885,25,6,s
2181.54821,60,1,8.6,7.4,8.5,8.530885,20,0,s
249.793404,85,1,8.4,6.88237,8.5,8.530885,15,0,m
16968.52801,85,1,9.5,6.88237,8.5,12,33,8,m
13305.79277,89,1,9.1,7.2,8.3,8.530885,29,0,m
69.023906,83,3,7.5,6.88237,8.009683,9,20,12,l
130.009365,85,1,9.1,7.2,8.3,8.530885,29,9,m
1.866509,60,1,8.6,7.2,8.4,8.530885,30,0,s
514.076093,74,1,7.5,6.88237,8.009683,8,19,0,s
183.797506,89,1,8.3,6.88237,8.009683,9,22,5,s
4015.942457,87,1,9,6.88237,8.5,7,22,12,s
190.463453,60,1,7.7,6.1,7.2,8.530885,20,14,l
71.728126,85,1,8.3,6.9,8.1,8.530885,27,3,m
1833.035407,60,1,9.1,7,8.8,8.530885,30,12,m
191.897377,85,1,9.1,7.2,8.3,8.530885,29,10,l
3538.447158,85,1,8.8,7,8,8,35,340,s
3670.589162,80,3,8.6,6.88237,7.3,6,15,9,m
99.133688,86,1,8.3,6.5,7.8,8.530885,10,9,l
260.293395,60,1,9.1,7,8.8,8.530885,30,11,s
6999.32488,81,1,9.1,7,8.8,8.530885,30,8,s
7.986196,85,5,6.4,6.88237,6.4,8.530885,26.742663,69,l
9505.79371,88,1,8.8,7,8,8,35,44,s
1040.857828,84,1,7.7,6.6,7.6,8,17,18,s
94.11019,85,1,6.9,6.88237,6.9,8.530885,10,0,s
96.759596,85,1,9.1,7.2,8.3,8.530885,29,0,l
176.741765,81,1,8.1,7.1,8.1,8.530885,18,7,l
98.39698,89,1,8.8,7.2,8.5,9,22,2,l
114.861968,85,1,9.1,7.2,8.3,8.530885,29,8,m
7856.145342,81,1,9,6.88237,8.5,7,22,0,s
63.026946,85,1,8.1,6.88237,8.3,9,45,22,s
37.678325,50,3,7.7,6.88237,7.8,9,20,0,m
135.447855,85,1,9.1,7.2,8.3,8.530885,29,8,l
17005.28663,85,1,9.5,6.88237,8.5,12,33,0,m
133.234565,89,1,8.2,6.88237,8.009683,8,25,6,m
181.408197,89,1,8.3,6.88237,8.009683,9,22,7,s
275.480861,85,1,8.4,6.88237,8.5,8.530885,15,85,m
10608.30623,80,1,8.8,7.2,8.5,9,22,11,s
269.587176,85,1,9.1,7.2,8.3,8.530885,29,22,l
3582.751746,80,3,8.6,6.88237,7.3,6,15,0,m
1835.565072,85,1,8.3,6.5,7.8,8.530885,10,0,s
111.577187,85,1,9.1,7.2,8.3,8.530885,29,6,s
3535.7652,80,1,8.6,6.88237,9.1,8.530885,33,0,l
17782.06759,85,1,8.8,7.2,8.5,9,22,12,s
101.091289,85,1,9.1,7.2,8.3,8.530885,29,30,l
96.889647,85,1,9.1,7.2,8.3,8.530885,29,11,l
95.92252,85,1,9.1,7.2,8.3,8.530885,29,9,m
121.228028,85,1,9.1,7.2,8.3,8.530885,29,10,l
132.544044,85,1,9.1,7.2,8.3,8.530885,29,6,m
183.036288,89,1,8.3,6.88237,8.009683,9,22,6,s
668.222269,81,1,8.1,7.1,8.1,8.530885,18,5,m
26.275961,50,1,6.8,6.88237,6,8,26.742663,8,l
161.220615,82,1,8.1,6.8,7.9,8.530885,24,20,m
299.839803,85,1,8.1,6.88237,8.3,9,45,0,m
17836.23175,85,1,9.5,6.88237,8.5,12,33,0,s
2578.348372,60,1,9.1,7,8.8,8.530885,30,0,m
181.374307,89,1,8.3,6.88237,8.009683,9,22,15,s
72.051037,85,1,8.3,6.9,8.1,8.530885,27,6,m
94.325161,85,1,9.1,7.2,8.3,8.530885,29,7,m
1831.101896,60,1,9.1,7,8.8,8.530885,30,6,m
256.511173,85,1,9.1,7.2,8.3,8.530885,29,9,l
15.975272,85,3,7.5,6.9,7.2,9,10,6,m
129.234353,89,1,8.8,7.2,8.5,9,22,22,m
170.87989,82,1,8.1,6.8,7.9,8.530885,24,15,m
10339.38446,89,1,8.1,6.88237,8.009683,9,19,0,s
5999.742579,85,1,7.7,6.4,7.9,8.530885,33,0,s
6036.017533,85,3,9.2,6.88237,8.4,10,25,8,s
108.635282,84,1,8.7,6.88237,8.7,9,33,78,s
488.498919,85,1,6.9,6.4,6.9,8.530885,33,7,s
146.798432,85,1,7.7,6.88237,7.7,8.530885,30,20,s
4125.329408,85,1,7.6,6.5,7.8,8.530885,13,0,s
101.257522,85,3,7.5,6.9,7.2,9,10,0,m
224.92929,74,1,6.4,6.88237,8.009683,8,10,0,s
147.357605,85,1,9.1,7.2,8.3,8.530885,29,13,l
1772.051378,60,1,9.1,7,8.8,8.530885,30,10,l
415.854768,85,1,9.1,7.2,8.3,8.530885,29,0,l
10209.29106,81,1,8,6.7,7.9,8,39,0,s
145.076274,85,1,9.1,7.2,8.3,8.530885,29,24,l
8824.559948,81,1,9.5,6.88237,8.5,12,33,7,s
16986.40272,85,1,9.5,6.88237,8.5,12,33,28,m
650.171693,60,1,9.1,7,8.8,8.530885,30,7,l
181.317377,89,1,8.3,6.88237,8.009683,9,22,21,s
180.803022,89,1,8.3,6.88237,8.009683,9,22,0,l
262.728644,60,1,9.1,7,8.8,8.530885,30,5,l
9.291279,50,1,6.6,6.88237,8.009683,7,7,5,s
98.79173,85,1,8.3,6.9,8.1,8.530885,27,8,m
10706.61608,80,1,9.5,6.88237,8.5,12,33,217,m
8959.173337,88,1,8.8,7.2,8.5,9,22,9,s
150.08961,85,1,8.3,6.88237,8.1,8.530885,15,3,m
3314.070233,85,1,7.4,6.88237,7.4,7,33,9,s
121.799349,85,1,9.1,7.2,8.3,8.530885,29,12,l
31.053398,50,1,7,6.88237,8.009683,8,21,6,s
2725.499726,85,1,8.3,6.88237,8.1,8.530885,15,647,m
10247.13953,81,1,8.8,7,8,8,35,12,s
983.611601,85,1,9.1,7.2,8.3,8.530885,29,4,m
132.929155,89,1,8.8,7.2,8.5,9,22,9,l
131.292889,85,1,9.1,7.2,8.3,8.530885,29,12,l
161.848581,82,1,8.1,6.8,7.9,8.530885,24,30,m
346.030867,85,1,7.8,6.8,7.7,8,24,10,m
181.568889,89,1,8.3,6.88237,8.009683,9,22,11,m
630.861961,85,1,9.1,7.2,8.3,8.530885,29,7,s
253.529928,89,1,6.8,6.88237,8.009683,8.530885,93,7,s
5077.751609,85,1,7.9,5.8,7.9,8.530885,33,0,s
104.696015,85,1,9.1,7.2,8.3,8.530885,29,7,m
63.548352,85,3,7.5,6.9,7.2,9,10,8,m
5981.072611,87,1,7.3,6.88237,7.3,8.530885,36,0,s
22.881851,85,3,7.5,6.9,7.2,9,10,5,s
593.288595,88,1,7.7,6.5,7.5,8.530885,14,12,s
1752.747116,89,1,8.2,6.88237,8.009683,8,25,0,s
560.91152,60,1,9.1,7,8.8,8.530885,30,75,m
58.001901,80,3,6.5,5.8,6.1,6,9,9,s
65.207723,83,3,7.5,6.88237,8.009683,9,20,18,l
4376.818056,60,1,9.1,7,8.8,8.530885,30,8,m
149.990169,85,1,9.1,7.2,8.3,8.530885,29,16,l
175.832046,85,1,9.1,7.2,8.3,8.530885,29,10,l
116.583699,85,1,9.1,7.2,8.3,8.530885,29,23,l
257.601451,85,1,9.1,7.2,8.3,8.530885,29,7,m
174.604214,81,1,8.1,7.1,8.1,8.530885,18,6,m
705.57619,86,1,7.6,6.5,7.6,6,33,0,s
261.452806,60,1,9.1,7,8.8,8.530885,30,10,l
1307.50287,87,1,8.8,7,8,8,35,34,s
1763.12099,60,1,9.1,7,8.8,8.530885,30,10,l
6516.897437,85,1,7.9,5.8,7.9,8.530885,33,0,s
779.971311,89,1,9.5,6.88237,8.5,12,33,4,m
727.690757,85,1,7.8,6.8,7.7,8,24,12,s
42.699834,60,1,7.8,6.5,7.3,8.530885,20,14,m
4921.135465,85,3,8.6,6.88237,7.3,6,15,46,s
146.554466,85,1,9.1,7.2,8.3,8.530885,29,9,l
107.369096,85,1,9.1,7.2,8.3,8.530885,29,9,m
888.376384,85,1,8.5,7.7,8.1,9,13,0,s
181.630817,89,1,8.3,6.88237,8.009683,9,22,16,m
7244.18798,88,1,9.1,7.2,8.3,8.530885,29,0,s
261.970049,60,1,9.1,7,8.8,8.530885,30,9,l
63.560013,85,3,7.5,6.9,7.2,9,10,5,m
6575.269588,85,1,7.7,6.4,7.9,8.530885,33,0,s
8384.632018,81,1,8.8,7.2,8.5,9,22,0,s
1696.491396,82,1,6.8,6.88237,8.009683,5,13,0,s
2540.709109,85,1,8.8,7,8,8,35,7,s
183.872032,89,1,8.3,6.88237,8.009683,9,22,11,s
800.386673,85,1,9.1,7.2,8.3,8.530885,29,4,m
11022.00641,80,1,9.5,6.88237,8.5,12,33,0,m
201.864036,88,1,7.6,5.4,7.7,8.530885,30,7,m
278.090664,85,1,8.3,6.88237,8.1,8.530885,15,0,s
545.639669,86,1,7.6,6.5,7.6,6,33,29,s
747.013325,85,1,7.8,6.8,7.7,8,24,0,s
103.701251,85,1,9.1,7.2,8.3,8.530885,29,11,m
405.343561,75,3,7.2,6.88237,8.009683,6,10,4,s
46.780312,83,3,7.5,6.88237,8.009683,9,20,8,s
691.349136,50,1,6,6.88237,8.009683,8,8,6,s
2031.671988,60,1,9.1,7,8.8,8.530885,30,9,m
17328.35463,85,1,9.5,6.88237,8.5,12,33,15,m
10839.70224,80,1,9.5,6.88237,8.5,12,33,0,m
10612.20319,81,1,8.5,6.88237,8.5,11,25,7,m
216.63472,85,1,9.1,7.2,8.3,8.530885,29,7,l
149.144031,83,3,8.2,6.5,8.1,9,33,0,s
371.473897,85,1,9.1,7.2,8.3,8.530885,29,0,m
160.944761,81,1,7.7,7,7.7,6,25,12,s
133.153781,89,1,8.8,7.2,8.5,9,22,5,l
8637.721507,81,1,8.3,6.88237,8.009683,9,22,0,s
9157.34617,81,1,9.1,7.2,8.3,8.530885,29,27,s
6.662218,85,3,7.5,6.9,7.2,9,10,11,l
134.986711,85,1,9.1,7.2,8.3,8.530885,29,10,l
210.551087,88,1,6.9,6.88237,8.009683,5,10,0,s
121.399652,85,1,9.1,7.2,8.3,8.530885,29,9,m
181.686391,89,1,8.3,6.88237,8.009683,9,22,13,m
173.471655,81,1,8.1,7.1,8.1,8.530885,18,20,l
699.774588,86,1,8.30368,6.88237,8.009683,8.530885,26.742663,183,l
181.315732,89,1,8.3,6.88237,8.009683,9,22,24,l
178.643869,89,1,8.3,6.88237,8.009683,9,22,11,m
1136.462928,73,1,7.8,6.7,7.9,6,33,0,s
63.540314,85,3,7.5,6.9,7.2,9,10,5,s
197.957603,85,1,9.1,7.2,8.3,8.530885,29,5,m
95.903376,60,1,7.8,6.5,7.3,8.530885,20,10,l
466.809036,85,1,9.1,7.2,8.3,8.530885,29,10,m
331.86476,85,1,8.2,6.88237,8.009683,6,7,5,s
216.445573,85,1,9.1,7.2,8.3,8.530885,29,6,l
92.834671,85,3,7.5,6.9,7.2,9,10,3,m
5039.520613,60,1,9.1,7,8.8,8.530885,30,12,l
10732.61249,80,1,9.5,6.88237,8.5,12,33,97,m
321.926824,85,1,8.1,6.88237,8.3,9,45,0,m
3625.804201,80,3,8.6,6.88237,7.3,6,15,0,l
146.295067,85,1,7.5,6.88237,8.009683,5,40,6,s
208.860231,81,1,8.1,7.1,8.1,8.530885,18,16,m
2528.328583,85,1,8.8,7,8,8,35,9,s
218.780467,85,1,9.1,7.2,8.3,8.530885,29,10,l
57.405191,82,3,7,5.8,7.1,8.530885,25,0,l
6140.972697,88,1,8.3,6.5,7.8,8.530885,10,0,s
401.738149,85,1,8.1,6.88237,8.3,9,45,238,m
311.026468,82,1,7.7,6.9,7.7,3,20,352,l
182.269871,85,1,8.2,6.88237,8.009683,6,7,0,m
129.986051,85,1,8.1,6.88237,8,8.530885,30,14,m
277.612335,50,1,7,6.88237,8.009683,8,21,0,s
656.400496,85,1,7.7,6.6,7.6,8,17,9,s
181.680333,89,1,8.3,6.88237,8.009683,9,22,13,m
5350.241688,80,1,8.3,6.88237,8.009683,10,40,0,s
42.044385,50,1,7,6.88237,8.009683,8,21,2,s
5000.355484,60,1,9.1,7,8.8,8.530885,30,6,m
829.67094,85,1,7.1,6.4,6.9,8.530885,28,72,s
10638.49648,80,1,9.5,6.88237,8.5,12,33,32,l
207.04194,85,1,9.1,7.2,8.3,8.530885,29,8,m
17003.74813,85,1,9.5,6.88237,8.5,12,33,7,m
2180.845903,85,1,7.6,6.4,7.6,6,50,0,s
10277.73077,81,1,9,6.88237,8.5,7,22,12,m
244.194031,85,1,9.1,7.2,8.3,8.530885,29,11,l
187.780936,60,1,7.7,6.1,7.2,8.530885,20,9,m
113.369811,60,1,9.1,7,8.8,8.530885,30,10,s
513.51749,85,1,7.1,6.3,7.1,8,50,0,s
181.471429,89,1,8.3,6.88237,8.009683,9,22,14,s
267.697647,60,1,9.1,7,8.8,8.530885,30,14,l
93.78049,85,1,9.1,7.2,8.3,8.530885,29,8,m
3793.645539,80,1,8.6,6.88237,9.1,8.530885,33,9,m
891.114389,85,1,7.3,6.88237,7.3,8.530885,36,8,s
100.25351,85,1,9.1,7.2,8.3,8.530885,29,10,l
1907.392832,88,1,7.6,6.88237,8.009683,8,33,6,s
312.744388,85,1,9.1,7.2,8.3,8.530885,29,10,l
5975.314688,81,1,9.1,7,8.8,8.530885,30,23,s
106.80315,85,1,9.1,7.2,8.3,8.530885,29,4,m
2517.749732,60,1,9.1,7,8.8,8.530885,30,11,m
3558.344414,80,1,8.6,6.88237,9.1,8.530885,33,9,m
453.81826,86,1,8.5,7.7,8.1,9,13,0,s
129.865143,85,1,9.1,7.2,8.3,8.530885,29,7,m
51.370206,85,1,7.9,6.88237,7.9,8.530885,35,9,m
270.557751,85,1,6.9,6.7,6.9,8.530885,12,0,s
6049.779325,60,1,9.1,7,8.8,8.530885,30,4,l
10728.70077,81,1,9.5,6.88237,8.5,12,33,0,s
3483.607009,80,3,8.6,6.88237,7.3,6,15,71,l
27.714943,50,1,7,6.88237,8.009683,8,21,9,m
508.727081,85,1,7.5,6.88237,8.009683,8.530885,60,91,s
3508.662752,80,1,7.3,6.9,8.009683,8.530885,52,0,s
2915.238925,88,3,9.2,6.88237,8.4,10,25,288,m
2842.499632,81,1,8.1,6.88237,8.009683,9,19,9,s
583.152863,60,1,9.1,7,8.8,8.530885,30,13,s
11.22526,50,1,6.6,6.88237,8.009683,7,7,0,m
411.750231,85,1,9.1,7.2,8.3,8.530885,29,4,m
78.025164,50,3,7,6.88237,7.2,11,40,5,m
268.081301,85,1,9.1,7.2,8.3,8.530885,29,5,m
10976.55098,81,1,9.5,6.88237,8.5,12,33,7,s
87.711715,85,1,9.1,7.2,8.3,8.530885,29,7,m
2299.301849,85,1,9,6.88237,8.5,7,22,0,s
292.449188,85,1,9.1,7.2,8.3,8.530885,29,11,l
7.204145,85,3,7.5,6.9,7.2,9,10,0,m
86.678084,85,1,7.7,6.6,7.6,8,17,31,l
30.869081,50,1,7,6.88237,8.009683,8,21,5,m
10540.00288,80,1,8.2,6.88237,8.009683,8,25,6,s
231.440173,74,1,7.3,6.88237,8.009683,10,33,13,m
16987.03467,85,1,9.5,6.88237,8.5,12,33,0,m
83.222881,85,1,9.1,7.2,8.3,8.530885,29,19,l
59.303194,82,1,8.1,6.8,7.9,8.530885,24,0,l
50.984445,85,3,7.5,6.9,7.2,9,10,6,l
17064.86379,85,1,9.5,6.88237,8.5,12,33,0,m
3600.623843,80,3,8.6,6.88237,7.3,6,15,39,m
258.397783,85,1,9.1,7.2,8.3,8.530885,29,11,l
9412.631959,81,1,9.1,7.2,8.3,8.530885,29,8,m
535.260968,85,1,9.1,7.2,8.3,8.530885,29,0,s
50.857018,85,3,7.5,6.9,7.2,9,10,5,m
1808.892645,60,1,9.1,7,8.8,8.530885,30,14,l
92.720399,85,1,9.1,7.2,8.3,8.530885,29,16,l
473.634203,86,1,7.7,6.6,7.6,8,17,9,s
461.100325,85,1,9.1,7.2,8.3,8.530885,29,0,s
4.470169,81,3,7.5,6.88237,7.5,8.530885,33,15,s
196.955393,89,1,8.8,7.2,8.5,9,22,15,l
7352.941195,81,1,8.8,7.2,8.5,9,22,0,m
113.509676,89,1,8.4,6.7,8.2,8,33,0,l
13316.3625,89,1,8.6,6.88237,9.1,8.530885,33,0,s
96.907388,85,1,9.1,7.2,8.3,8.530885,29,9,l
3456.903217,85,1,7.3,6.88237,7.3,8.530885,36,41,s
16911.38341,74,1,9.1,7,8.8,8.530885,30,13,s
206.411068,81,1,8.1,7.1,8.1,8.530885,18,20,l
75.984178,84,1,6,6.88237,6.8,9,26.742663,20,l
263.163119,60,1,9.1,7,8.8,8.530885,30,8,m
32.70842,60,3,7.8,6.5,7.5,11,28,6,m
116.315076,85,1,9.1,7.2,8.3,8.530885,29,12,l
531.415368,60,1,9.1,7,8.8,8.530885,30,10,m
60.620958,82,1,8.1,6.8,7.9,8.530885,24,20,l
17.563734,85,3,7.5,6.9,7.2,9,10,8,m
4373.615048,60,1,9.1,7,8.8,8.530885,30,10,m
94.560389,85,1,9.1,7.2,8.3,8.530885,29,12,m
14408.93256,89,1,8.8,7,8,8,35,0,s
149.824076,87,3,8.6,6.88237,7.3,6,15,10,l
324.669963,85,1,9.1,7.2,8.3,8.530885,29,6,l
100.073709,85,1,8.3,6.88237,8.1,8.530885,15,8,m
186.352437,81,1,8.1,7.1,8.1,8.530885,18,10,s
166.892435,81,1,8.1,7.1,8.1,8.530885,18,9,l
13155.62995,89,1,9.1,7.2,8.3,8.530885,29,44,m
1806.491518,60,1,9.1,7,8.8,8.530885,30,9,l
3656.561508,80,3,8.6,6.88237,7.3,6,15,11,l
11.503088,85,3,7.5,6.9,7.2,9,10,5,m
147.950173,85,1,8,6.88237,8,5,26.742663,7,l
17125.36291,85,1,8.5,6.88237,8.5,10,30,0,s
476.664112,85,1,7.7,6.6,7.6,8,17,9,s
75.430662,88,1,7.7,6.5,7.5,8.530885,14,28,m
188.768128,81,1,8.1,7.1,8.1,8.530885,18,27,l
11021.41354,80,1,9.5,6.88237,8.5,12,33,0,m
698.533712,85,1,7.7,6.6,7.6,8,17,0,s
574.040198,60,1,9.1,7,8.8,8.530885,30,0,m
3781.807576,80,1,8.6,6.88237,9.1,8.530885,33,0,m
105.937668,88,1,8,6.6,7.4,8.530885,33,18,m
249.383208,85,1,8.4,6.88237,8.5,8.530885,15,9,m
253.62083,85,1,9.1,7.2,8.3,8.530885,29,6,s
11556.64621,89,3,8.6,6.88237,7.3,6,15,9,s
134.387059,85,1,9.1,7.2,8.3,8.530885,29,7,l
4550.302009,81,1,8.1,6.88237,8.009683,9,19,0,s
3665.963634,80,3,8.6,6.88237,7.3,6,15,9,l
133.52712,85,1,9.1,7.2,8.3,8.530885,29,12,l
3009.163516,85,1,8.7,7.7,7.8,6,30,0,s
225.702551,81,1,8.1,7.1,8.1,8.530885,18,6,s
15.277346,84,1,7.1,6.1,7.1,8.530885,32,0,l
135.300887,85,1,9.1,7.2,8.3,8.530885,29,16,l
2297.907984,88,1,8.2,6.88237,8.009683,8,32,0,s
3872.007973,80,1,7.3,6.9,8.009683,8.530885,52,11,s
99.737632,85,1,9.1,7.2,8.3,8.530885,29,6,l
3780.080054,80,1,8.6,6.88237,9.1,8.530885,33,12,m
11152.88487,80,1,9.5,6.88237,8.5,12,33,0,m
21.339472,88,1,7.7,6.5,7.5,8.530885,14,57,l
181.472496,89,1,8.3,6.88237,8.009683,9,22,18,s
92.620772,85,3,7.5,6.9,7.2,9,10,8,l
183.445218,89,1,8.3,6.88237,8.009683,9,22,12,l
690.707333,82,1,7.5,7.4,7.1,8.530885,60,0,s
466.999124,85,1,8.1,6.88237,8.3,9,45,79,s
2522.118287,60,1,9.1,7,8.8,8.530885,30,5,m
97.214791,85,1,9.1,7.2,8.3,8.530885,29,7,l
2057.475482,88,3,9.2,6.88237,8.4,10,25,0,s
7554.985516,81,1,8.1,7.3,8.2,8.530885,10,0,s
16950.89675,85,1,9.1,6.88237,8.7,11,26.742663,0,m
60.459153,83,3,7.5,6.88237,8.009683,9,20,13,l
442.829508,85,1,9.1,7.2,8.3,8.530885,29,14,s
136.056365,85,1,9.1,7.2,8.3,8.530885,29,7,l
95.391017,85,1,9.1,7.2,8.3,8.530885,29,6,m
12172.67699,87,1,8.1,6.88237,7.5,9,38,0,s
210.152059,85,1,9.1,7.2,8.3,8.530885,29,11,l
4214.968706,80,1,7.7,6.5,7.5,8.530885,14,0,s
94.421015,85,1,9.1,7.2,8.3,8.530885,29,13,l
80.662965,85,1,7.5,6.88237,8.009683,5,40,8,m
135.300342,85,1,9.1,7.2,8.3,8.530885,29,11,s
30.854381,50,1,7,6.88237,8.009683,8,21,6,s
2725.499726,85,1,8.3,6.88237,8.1,8.530885,15,647,s
575.623513,85,1,7.7,6.5,7.7,8,48,0,s
16969.93748,85,1,9.5,6.88237,8.5,12,33,0,m
3812.317911,81,1,7,6.88237,8.009683,8.530885,17,0,s
131.417138,85,3,7.5,6.9,7.2,9,10,0,m
2326.61239,85,1,7.5,6.5,7.5,4,11,7,s
2239.485932,60,1,9.1,7,8.8,8.530885,30,3,s
12.813915,85,1,6.5,6.88237,6.5,8.530885,26.742663,8,m
6136.388835,85,1,7.7,6.4,7.9,8.530885,33,95,s
2725.499726,85,1,7.9,6.88237,7.9,9,40,647,m
5962.083459,81,1,8.5,6.88237,8.5,10,26.742663,29,m
65.525033,50,1,7.1,6.88237,7.1,10,26.742663,8,m
93.464623,88,1,7.9,6.88237,7.9,7,25,8,s
263.113676,60,1,9.1,7,8.8,8.530885,30,6,l
6062.268974,88,1,8.3,6.5,7.8,8.530885,10,9,s
39.014495,60,1,7.8,6.5,7.3,8.530885,20,0,l
183.712781,89,1,8.3,6.88237,8.009683,9,22,8,s
38.646294,81,1,7.8,7.1,8,9,59,10,m
5927.303405,80,1,9.1,7.2,8.3,8.530885,29,13,m
11159.65457,80,1,9.5,6.88237,8.5,12,33,44,m
106.04905,85,1,9.1,7.2,8.3,8.530885,29,11,l
3790.464831,80,1,8.6,6.88237,9.1,8.530885,33,33,m
16965.63403,85,1,9.5,6.88237,8.5,12,33,6,m
2021.221447,60,1,9.1,7,8.8,8.530885,30,12,m
2346.451982,89,1,9.5,6.88237,8.5,12,33,0,s
119.167301,89,1,8.3,6.88237,8.009683,9,22,17,l
869.242965,85,1,8.3,6.88237,8.3,8.530885,26.742663,0,l
1641.197304,81,1,7.8,6.6,8.1,8.530885,29,0,s
740.265509,87,1,8.2,8.2,8.3,6,25,0,s
1379.975928,81,1,7.4,6.88237,8.009683,7,55,0,s
101.988574,81,1,7.8,6.88237,8.009683,9,15,0,m
3754.556698,80,3,8.6,6.88237,7.3,6,15,175,l
350.821853,85,1,9.1,7.2,8.3,8.530885,29,22,m
130.418235,85,1,9.1,7.2,8.3,8.530885,29,6,m
2725.499726,80,3,8.6,6.88237,7.3,6,15,647,l
12175.22343,60,1,9.5,6.88237,8.5,12,33,6,s
2146.350522,88,3,9.2,6.88237,8.4,10,25,87,m
483.6226,85,1,6.9,6.88237,8.009683,8,9,0,s
334.717549,85,1,9.1,7.2,8.3,8.530885,29,7,m
723.642352,85,1,7.8,6.8,7.7,8,24,12,s
267.940627,60,1,7.7,6.1,7.2,8.530885,20,10,l
97.328103,85,1,9.1,7.2,8.3,8.530885,29,9,l
792.98504,86,1,7.5,6.88237,8.009683,5,40,0,s
1155.014053,82,1,7.3,6.88237,7.3,8.530885,33,0,m
47.018331,50,1,7,6.88237,8.009683,8,21,5,s
98.081304,89,1,8.8,7.2,8.5,9,22,14,l
121.244864,85,1,9.1,7.2,8.3,8.530885,29,9,m
209.481278,85,1,8.2,6.88237,8.009683,6,7,0,m
98.79173,85,1,8.3,6.9,8.1,8.530885,27,8,m
120.796679,86,1,8.3,7.3,8.1,9,14,27,l
258.620879,89,1,8.3,6.88237,8.009683,9,22,10,m
146.740215,87,3,9.2,6.88237,8.4,10,25,2,l
116.211215,89,1,8.8,7.2,8.5,9,22,0,l
6240.596069,80,1,9.1,7.2,8.3,8.530885,29,16,m
143.776478,85,1,7.9,6.88237,7.9,8.530885,35,98,m
97.558569,85,1,9.1,7.2,8.3,8.530885,29,12,l
1899.473078,85,1,8.8,7,8,8,35,7,s
2006.312868,60,1,9.1,7,8.8,8.530885,30,8,m
147.934899,85,1,7.5,6.88237,8.009683,5,40,7,m
248.949319,85,1,9.1,7.2,8.3,8.530885,29,19,l
16762.79738,84,1,9.5,6.88237,8.5,12,33,7,s
667.375318,81,1,8.1,7.1,8.1,8.530885,18,9,m
90.374561,85,3,7.5,6.9,7.2,9,10,8,l
2725.499726,85,1,9.1,7.2,8.3,8.530885,29,647,m
131.500478,85,1,9.1,7.2,8.3,8.530885,29,5,m
44.129329,85,1,7.2,6.88237,8.009683,8.530885,40,0,s
343.951328,85,1,9.1,7.2,8.3,8.530885,29,7,s
3482.682628,80,3,8.6,6.88237,7.3,6,15,0,m
2725.499726,85,1,8.3,6.88237,8.1,8.530885,15,647,m
13.107708,84,1,7.1,6.1,7.1,8.530885,32,0,s
3085.040254,85,1,7.6,6.4,7.6,6,50,0,s
102.209767,85,1,9.1,7.2,8.3,8.530885,29,7,m
3108.674423,85,3,8.2,6.5,8.1,9,33,18,s
136.234448,85,1,9.1,7.2,8.3,8.530885,29,11,l
67.038434,60,1,7.8,6.5,7.3,8.530885,20,0,l
227.023299,60,1,7.8,5.7,7.2,8.530885,18,0,m
356.588403,60,1,9.1,7,8.8,8.530885,30,4,m
57.545577,89,1,6.9,6.3,8.009683,7,28,13,s
2725.499726,81,3,6.4,6.88237,6.8,8.530885,33,647,s
5125.288252,85,1,7.7,6.4,7.9,8.530885,33,0,s
284.433753,85,1,8.4,6.88237,8.5,8.530885,15,0,l
132.181865,85,1,9.1,7.2,8.3,8.530885,29,8,s
17027.10025,85,1,9.5,6.88237,8.5,12,33,8,s
6700.320738,88,1,8.3,6.88237,7.6,8.530885,26.742663,22,m
68.172751,60,3,7.8,6.5,7.5,11,28,9,m
54.79578,83,3,7.5,6.88237,8.009683,9,20,0,m
3938.558377,85,3,8.2,6.5,8.1,9,33,6,s
18052.73936,85,1,8.3,6.88237,8.009683,9,22,12,s
428.59326,82,1,7.1,6.2,7.1,8.530885,32,0,s
3084.552931,85,1,8.8,7,8,8,35,0,s
2725.499726,85,1,7.9,6.88237,7.9,8.530885,35,647,m
230.207311,85,1,6.6,6.88237,8.009683,8.530885,60,17,s
19.004946,85,1,7.3,6.88237,7.3,8.530885,26.742663,11,s
161.826789,84,3,3.7,6.88237,3.7,8.530885,8,1,s
181.732191,89,1,8.3,6.88237,8.009683,9,22,19,m
13.431622,88,3,5.2,6.88237,5.2,7,15,0,m
49.511969,84,1,7.1,6.1,7.1,8.530885,32,11,s
210.732975,85,1,9.1,7.2,8.3,8.530885,29,8,l
4266.931119,80,3,9.2,6.88237,8.4,10,25,0,s
14.449081,50,1,7,6.88237,8.009683,8,21,0,s
5008.130193,81,1,8,6.6,7.4,8.530885,33,10,s
183.280934,89,1,8.3,6.88237,8.009683,9,22,9,s
3481.45846,80,3,8.6,6.88237,7.3,6,15,0,l
1810.251691,60,1,9.1,7,8.8,8.530885,30,8,l
83.972126,83,1,6,6.88237,6,8,26.742663,10,m
100.567904,85,1,9.1,7.2,8.3,8.530885,29,5,m
254.95791,85,1,9.1,7.2,8.3,8.530885,29,7,l
183.561364,89,1,8.3,6.88237,8.009683,9,22,0,s
72.25461,85,1,8.1,6.88237,8.3,9,45,0,m
11148.67312,80,1,9.5,6.88237,8.5,12,33,0,m
3438.467827,84,1,8.5,7.7,8.1,9,13,0,s
98.79173,85,1,8.3,6.9,8.1,8.530885,27,8,m
9075.397816,81,1,9.1,7,8.8,8.530885,30,3,s
7.266511,85,3,7.5,6.9,7.2,9,10,0,l
11369.31648,81,3,9.2,6.88237,8.4,10,25,17,s
76.212644,85,3,7.5,6.9,7.2,9,10,6,m
13315.36125,89,1,9.1,7.2,8.3,8.530885,29,6,m
477.893263,85,1,9.1,7.2,8.3,8.530885,29,0,m
10857.55,81,1,9.5,6.88237,8.5,12,33,3,s
97.021217,60,1,8.2,6.88237,7.8,8.530885,50,11,s
257.88636,85,1,9.1,7.2,8.3,8.530885,29,7,l
122.096518,85,1,9.1,7.2,8.3,8.530885,29,7,l
3580.989762,80,3,8.6,6.88237,7.3,6,15,0,l
126.940029,85,1,9.1,7.2,8.3,8.530885,29,9,m
111.901747,85,1,7.7,6.6,7.6,8,17,0,s
104.337614,85,1,9.1,7.2,8.3,8.530885,29,7,m
212.953322,60,1,7.7,6.1,7.2,8.530885,20,7,l
1958.267382,85,1,9,6.88237,8.5,7,22,0,s
89.604217,85,1,9.1,7.2,8.3,8.530885,29,6,l
160.273876,82,1,8.1,6.8,7.9,8.530885,24,24,m
128.830328,82,1,8.1,6.8,7.9,8.530885,24,20,m
206.240732,81,1,8.1,7.1,8.1,8.530885,18,28,m
14.964805,81,1,5.4,6.88237,8.009683,9,7,382,s
181.75186,89,1,8.3,6.88237,8.009683,9,22,15,m
624.428366,86,1,7.5,6.4,7.5,6,33,0,s
120.179517,86,1,7.1,6.3,7.1,9,9,71,s
990.743972,85,1,9.1,7.2,8.3,8.530885,29,0,s
129.027898,85,1,9.1,7.2,8.3,8.530885,29,7,m
28.669108,84,1,7.3,6.5,7.3,6,40,14,m
181.321305,89,1,8.3,6.88237,8.009683,9,22,13,s
27.363047,83,1,7.9,6.3,7.6,6,24,7,m
241.025373,85,1,9.1,7.2,8.3,8.530885,29,5,l
2725.499726,85,1,8.3,6.88237,8.1,8.530885,15,647,m
533.931727,85,1,7.8,6.8,7.7,8,24,31,s
38.484483,89,1,8.8,7.2,8.5,9,22,36,l
5246.109563,85,3,8.6,6.88237,7.3,6,15,0,s
181.635318,89,1,8.3,6.88237,8.009683,9,22,13,m
191.565955,85,1,9.1,7.2,8.3,8.530885,29,7,l
2161.434277,60,1,9.1,7,8.8,8.530885,30,30,m
142.647784,89,1,8.8,7.2,8.5,9,22,24,l
97.074848,85,1,9.1,7.2,8.3,8.530885,29,8,l
97.353948,85,1,9.1,7.2,8.3,8.530885,29,14,l
216.700305,85,1,9.1,7.2,8.3,8.530885,29,9,l
148.743347,85,1,8.4,6.88237,8.4,8.530885,26.742663,65,l
134.569442,85,1,9.1,7.2,8.3,8.530885,29,9,m
7361.240627,73,1,8.6,8,8.6,11,33,103,s
4594.900549,81,1,9,6.88237,8.5,7,22,0,s
13165.28727,89,1,9.1,7.2,8.3,8.530885,29,0,m
50.799665,85,3,7.5,6.9,7.2,9,10,4,m
848.59797,85,1,9.1,7.2,8.3,8.530885,29,0,m
96.912664,85,1,9.1,7.2,8.3,8.530885,29,8,m
200.357868,81,1,8.1,7.1,8.1,8.530885,18,21,l
285.482901,87,3,9.2,6.88237,8.4,10,25,4,m
1162.376576,60,1,9.1,7,8.8,8.530885,30,11,s
98.461553,85,1,8.3,6.9,8.1,8.530885,27,0,m
79.724146,85,1,9.1,7.2,8.3,8.530885,29,10,l
59.777319,60,1,7.8,6.5,7.3,8.530885,20,9,s
250.320854,85,1,9.1,7.2,8.3,8.530885,29,9,l
666.022592,86,3,7.5,6.9,7.2,9,10,167,s
821.414999,85,1,7.9,6.6,7.9,5,33,0,s
1726.924635,60,1,9.1,7,8.8,8.530885,30,13,m
140.551157,82,1,8.1,6.8,7.9,8.530885,24,14,m
209.062981,81,1,8.1,7.1,8.1,8.530885,18,22,m
5038.617322,60,1,9.1,7,8.8,8.530885,30,10,l
3957.989375,85,3,8.2,6.5,8.1,9,33,0,s
57.431883,60,1,7.7,6.6,7.6,6,10,0,m
9720.916553,89,1,8.1,6.88237,8.009683,9,19,0,s
8036.742491,88,1,9.1,7.2,8.3,8.530885,29,10,m
131.545651,89,1,8.2,6.88237,8.009683,8,25,7,m
105.097241,85,1,9.1,7.2,8.3,8.530885,29,7,m
7232.633887,81,3,8.6,6.88237,7.3,6,15,17,l
316.607997,85,1,7.8,6.8,7.7,8,24,30,s
141.768707,85,1,6.5,6.88237,8.009683,8.530885,41,57,s
228.049939,85,1,9.1,7.2,8.3,8.530885,29,8,m
175.835787,85,1,8.3,6.9,8.1,8.530885,27,4,s
260.264922,60,1,9.1,7,8.8,8.530885,30,8,l
17530.62806,85,1,9.5,6.88237,8.5,12,33,9,s
1065.901476,81,1,7.2,6.6,7.2,8.530885,33,0,s
456.256604,88,1,7.5,6.88237,7.1,8,65,0,s
236.509078,85,1,7.3,6.6,7.3,8.530885,51,0,s
188.297191,89,1,8.3,6.88237,8.009683,9,22,18,s
152.43745,85,1,7.7,6.5,7.7,8,48,15,s
2497.525452,60,1,9.1,7,8.8,8.530885,30,4,s
93.172743,85,3,7.5,6.9,7.2,9,10,5,m
9606.875185,81,1,8.5,6.88237,8.5,10,26.742663,13,s
9585.400933,81,1,9.1,7.2,8.3,8.530885,29,13,m
9295.957623,88,1,9.5,6.88237,8.5,12,33,5,m
10345.95424,89,1,7.6,7,7.6,8.530885,34,10,s
36.485408,85,1,7.9,6.88237,7.9,8.530885,35,0,l
181.635898,85,1,7,6.88237,8.009683,8.530885,60,0,s
1221.178933,85,1,7.9,6.6,7.9,5,33,0,s
2576.935668,71,1,8.1,6.88237,8.009683,8.530885,48,6,s
3028.66341,88,3,8.6,6.88237,7.3,6,15,12,m
322.713073,87,1,6.9,6.88237,8.009683,4,29,0,s
80.791714,85,1,7.5,6.88237,7.5,7,30,171,s
83.742707,86,1,7.3,6.88237,7.3,8.530885,40,27,s
81.050135,80,1,6.8,6.88237,6.8,8.530885,33,11,s
182.052322,89,1,8.3,6.88237,8.009683,9,22,11,m
53.694476,88,1,7.7,6.5,7.5,8.530885,14,24,m
2153.271165,88,3,9.2,6.88237,8.4,10,25,7,m
3508.728897,80,3,8.6,6.88237,7.3,6,15,0,m
2067.262175,86,1,6.9,6.88237,8.009683,8,9,23.263212,s
73.098864,89,1,6.9,6.3,8.009683,7,28,0,s
7342.667929,73,1,8.6,8,8.6,11,33,0,s
97.803375,85,1,9.1,7.2,8.3,8.530885,29,7,m
749.771,60,1,9.1,7,8.8,8.530885,30,13,l
187.721147,88,1,7.6,5.4,7.7,8.530885,30,7,m
1141.899759,85,1,9.1,7.2,8.3,8.530885,29,0,s
100.478545,85,1,9.1,7.2,8.3,8.530885,29,8,s
6669.04481,88,1,8.3,6.9,8.1,8.530885,27,12,s
3802.283237,80,3,8.6,6.88237,7.3,6,15,48,l
182.414504,89,1,8.3,6.88237,8.009683,9,22,17,s
203.675301,89,1,8.8,7.2,8.5,9,22,15,l
330.593688,86,1,7.5,6.88237,7.5,9,10,9,s
124.680366,85,1,9.1,7.2,8.3,8.530885,29,9,m
3857.477245,80,3,8.6,6.88237,7.3,6,15,0,s
114.120029,85,1,9.1,7.2,8.3,8.530885,29,11,m
78.373704,85,1,7.8,6.8,7.7,8,24,8,l
96.68736,89,1,8.3,6.88237,8.009683,9,22,14,s
2725.499726,81,3,7.1,6.88237,7.2,4,12,647,m
3631.375372,80,3,8.6,6.88237,7.3,6,15,93,l
197.393176,85,1,7.2,6.88237,8.009683,8.530885,10,0,s
4.587167,85,3,7.5,6.9,7.2,9,10,7,m
181.62419,89,1,8.3,6.88237,8.009683,9,22,18,m
87.346503,74,1,7.6,6.3,7.4,10,10,0,m
1243.902392,85,1,8.2,6.88237,8.009683,6,7,7,m
146.384102,85,1,8.2,6.88237,8.009683,6,7,9,l
318.742463,85,1,9.1,7.2,8.3,8.530885,29,7,l
10645.09725,80,1,9.5,6.88237,8.5,12,33,0,m
174.224205,81,1,8.1,7.1,8.1,8.530885,18,0,l
259.066907,85,1,9.1,7.2,8.3,8.530885,29,6,s
464.484174,85,1,9.1,7.2,8.3,8.530885,29,5,m
93.961652,89,1,8.4,6.7,8.2,8,33,34,l
216.441507,85,1,9.1,7.2,8.3,8.530885,29,7,l
8832.316015,81,1,8.8,7,8,8,35,10,m
69.593031,83,3,7.5,6.88237,8.009683,9,20,11,m
3538.10182,80,1,8.6,6.88237,9.1,8.530885,33,44,l
76.913392,88,1,8.1,6.88237,8.2,10,35,0,m
98.086265,85,1,9.1,7.2,8.3,8.530885,29,7,m
51.135802,83,3,6.8,6.88237,6.8,8.530885,40,4,m
1689.455138,81,1,8.1,6.88237,8.009683,9,19,24,s
161.062982,86,1,8.2,6.88237,7.8,9,30,14,s
4.992195,84,1,6.7,6.3,6.6,8,11,2,m
518.031585,87,1,7.7,6.5,7.5,8.530885,14,5,s
203.977939,85,1,8.2,6.88237,8.009683,6,7,10,m
9661.288724,88,1,8.3,6.88237,8.009683,9,22,0,s
81.704344,88,1,7.7,6.5,7.5,8.530885,14,12,m
359.079691,50,1,7.8,6.88237,8.009683,9,17,3,s
6928.944344,85,3,9.2,6.88237,8.4,10,25,4,s
2605.731385,89,1,8,6.7,7.9,8,39,0,s
37.656593,50,3,7.7,6.88237,7.8,9,20,6,m
6188.506531,80,1,9.1,7.2,8.3,8.530885,29,0,s
260.606797,85,1,9.1,7.2,8.3,8.530885,29,7,s
10882.65737,88,3,8.2,6.5,8.1,9,33,0,s
92.119956,60,1,8.6,7.2,8.4,8.530885,30,14,m
3838.673261,80,3,8.6,6.88237,7.3,6,15,20,m
2045.429196,88,3,9.2,6.88237,8.4,10,25,7,s
174.406354,81,1,8.1,7.1,8.1,8.530885,18,6,l
3154.150286,81,1,7.3,6.8,7.4,8.530885,16,0,s
99.95817,85,1,9.1,7.2,8.3,8.530885,29,9,s
806.798937,85,3,7.5,6.9,7.2,9,10,0,s
247.323266,60,1,7.8,5.7,7.2,8.530885,18,0,l
269.604064,88,1,7.3,6.2,7.3,8.530885,33,8,s
275.690564,85,1,8.4,6.88237,8.5,8.530885,15,0,l
31.013364,86,1,6.2,5.3,6.2,8.530885,5,73,m
1041.688623,84,1,7.7,6.6,7.6,8,17,23,m
263.627034,85,1,7.7,6.8,7.7,8,44,0,s
727.02179,89,1,7.7,6.4,7.3,7,15,0,s
368.291151,85,1,8.2,6.88237,8.009683,6,7,15,s
5778.362378,80,1,8.4,6.88237,8.5,8.530885,15,0,s
406.431108,85,1,6.9,6.88237,8.009683,8,9,0,s
3914.551875,80,1,7.9,6.88237,8.009683,4,14,0,s
17058.53922,85,1,9.5,6.88237,8.5,12,33,0,m
7391.320294,81,1,8.8,7.2,8.5,9,22,31,s
148.971724,88,1,7.6,5.4,7.7,8.530885,30,3,l
17644.42098,85,1,9.5,6.88237,8.5,12,33,9,m
6403.320833,60,1,9.1,7,8.8,8.530885,30,0,m
1181.676325,60,1,7.5,7,7.5,6,35,7,s
96.153247,60,1,7.8,6.5,7.3,8.530885,20,5,l
2985.96703,89,1,7,6.88237,8.009683,8.530885,17,20,s
93.520416,85,1,9.1,7.2,8.3,8.530885,29,7,l
6653.745045,85,3,7.7,6,7.2,9,2,0,s
227.347547,60,1,7.7,6.1,7.2,8.530885,20,7,l
119.357419,85,1,7.4,6.88237,7.4,8.530885,10,15,s
10715.30557,80,1,9.5,6.88237,8.5,12,33,0,m
118.693749,85,1,9.1,7.2,8.3,8.530885,29,9,m
181.549493,89,1,8.3,6.88237,8.009683,9,22,15,m
73.095747,85,1,8.1,6.88237,8.3,9,45,10,m
125.461477,50,3,7.7,6.88237,7.8,9,20,5,m
126.272902,85,1,7.8,6.8,7.7,8,24,54,m
10840.3616,80,1,9.5,6.88237,8.5,12,33,0,m
12.730609,50,1,6.6,6.88237,8.009683,7,7,0,s
195.686129,85,1,7.7,6.88237,7.7,8.530885,26.742663,69,s
7.05424,85,3,7.5,6.9,7.2,9,10,11,m
560.832963,85,1,7,5.8,7,8.530885,15,0,s
131.264164,89,1,7.5,5.8,6.6,4,10,12,m
15.207761,84,1,7.1,6.1,7.1,8.530885,32,6,m
5134.012939,60,1,9.1,7,8.8,8.530885,30,6,l
6797.535785,88,1,8.8,7.2,8.5,9,22,23.263212,s
10683.89634,81,1,9.5,6.88237,8.5,12,33,0,s
17034.86166,85,1,8,6.7,7.8,8,40,0,s
271.822525,85,1,8.2,6.88237,8.009683,6,7,33,m
472.585856,86,1,7.4,6.9,7.5,8.530885,36,0,s
5737.699825,80,1,8.2,6.88237,8.009683,6,7,0,s
2005.342381,73,1,8.5,6.88237,8.009683,11,26.742663,5,m
4686.63183,85,1,7.9,6.3,7.9,6,48,0,s
242.890559,85,1,8.2,6.88237,8.009683,6,7,0,s
175.313559,85,1,7.1,6.88237,7.1,8.530885,0,5,s
206.394018,81,1,8.1,7.1,8.1,8.530885,18,17,m
4449.303101,80,3,9.2,6.88237,8.4,10,25,0,m
98.680534,85,1,9.1,7.2,8.3,8.530885,29,13,l
479.070747,85,1,7.9,6.88237,7.9,9,40,8,s
439.345535,85,1,9.1,7.2,8.3,8.530885,29,0,s
437.414081,81,1,7.3,6.7,7.3,8.530885,16,0,s
98.500745,86,1,8.3,6.5,7.8,8.530885,10,9,l
640.557953,85,1,7.7,6.6,7.6,8,17,10,s
106.857818,85,1,7.7,6.5,7.7,8,48,3,s
3556.662231,80,3,8.6,6.88237,7.3,6,15,16,m
10714.01927,80,1,9.5,6.88237,8.5,12,33,0,m
82.301725,81,1,6.9,6.88237,8.009683,8.530885,20,8,s
98.79173,85,1,8.3,6.9,8.1,8.530885,27,8,m
101.248185,85,1,9.1,7.2,8.3,8.530885,29,7,m
213.890243,81,1,8.1,7.1,8.1,8.530885,18,6,m
181.601579,89,1,8.3,6.88237,8.009683,9,22,17,m
132.128307,85,1,9.1,7.2,8.3,8.530885,29,7,l
17109.71123,85,1,9.5,6.88237,8.5,12,33,11,m
8381.312592,88,1,8,6.6,7.3,7,46,0,s
195.0987,85,1,7.8,6.8,7.7,8,24,0,s
6249.72296,80,1,9.1,7.2,8.3,8.530885,29,12,m
9455.625363,81,1,8.3,6.88237,8.009683,9,22,3,s
121.710758,50,3,7.7,6.88237,7.8,9,20,45,m
160.570208,85,1,7.1,6.88237,7.1,8.530885,0,45,s
82.614005,82,1,8,6,8.2,8.530885,17,1381,m
102.488926,50,1,6.4,6.1,6.4,8,3,6,s
130.539069,85,1,9.1,7.2,8.3,8.530885,29,9,s
69.127652,83,3,7.5,6.88237,8.009683,9,20,9,m
3959.139551,85,1,8.7,7.7,7.8,6,30,72,s
623.879369,50,3,6.7,6.88237,6.7,11,15,0,s
30.241622,50,1,7,6.88237,8.009683,8,21,6,s
94.902533,85,1,9.1,7.2,8.3,8.530885,29,6,s
12457.16454,88,1,7.9,6.4,7.4,8,24,3,s
5599.856922,60,1,9.1,7,8.8,8.530885,30,7,s
102.463266,85,1,8.3,6.9,8.1,8.530885,27,4,m
6161.804078,88,1,8.1,7.3,8.2,8.530885,10,0,s
5992.679093,82,1,9.1,7.2,8.3,8.530885,29,23.263212,s
473.085293,85,1,7,6.88237,7,8.530885,34,4,s
3894.837269,80,1,8.6,6.88237,9.1,8.530885,33,175,l
3.725636,88,1,7.7,6.5,7.5,8.530885,14,4,l
2497.644666,60,1,9.1,7,8.8,8.530885,30,0,s
40.876902,86,1,6.2,5.3,6.2,8.530885,5,9,m
46.653719,85,3,7.5,6.9,7.2,9,10,8,m
47.605537,60,1,7.8,6.5,7.3,8.530885,20,13,l
127.759413,50,3,7.2,6.88237,8.009683,8.530885,15,12,m
9480.618362,88,1,8.3,6.88237,8.009683,9,22,0,s
16168.97615,89,1,9.1,7.2,8.3,8.530885,29,8,m
8.445583,85,3,7.5,6.9,7.2,9,10,6,m
1781.269429,82,1,7.2,6.88237,8.009683,8.530885,34,7,s
100.241044,85,1,9.1,7.2,8.3,8.530885,29,6,m
5359.222713,88,1,8.3,6.88237,8.009683,9,22,0,s
327.568553,60,1,9.1,7,8.8,8.530885,30,0,s
6249.99609,80,1,9.1,7.2,8.3,8.530885,29,9,m
3570.693175,80,1,8.6,6.88237,9.1,8.530885,33,8,m
9249.334242,88,1,7.6,6.4,7.3,8.530885,45,0,s
710.291463,50,1,6.8,6.5,6.9,10,12,6,s
3570.382631,80,1,8.6,6.88237,9.1,8.530885,33,17,m
113.292203,85,1,7.5,6.88237,7.5,8.530885,0,20,s
181.569651,89,1,8.3,6.88237,8.009683,9,22,18,m
10536.91457,81,1,8.5,6.88237,8.5,11,25,24,l
521.03775,60,1,9.1,7,8.8,8.530885,30,0,m
1550.097224,88,1,7.9,6.88237,8.009683,4,14,0,s
124.660131,85,1,9.1,7.2,8.3,8.530885,29,11,m
3780.1899,80,1,8.6,6.88237,9.1,8.530885,33,0,m
593.721196,85,1,7.7,6.5,7.7,8,48,80,s
2725.499726,85,1,8.3,6.88237,8.1,8.530885,15,647,m
4195.326623,88,3,7.7,6,7.2,9,2,12,s
7.284482,85,3,7.5,6.9,7.2,9,10,10,m
11.373379,50,1,6.7,6.88237,6.7,9,14,0,m
445.494227,50,1,6.8,6.88237,8.009683,8,14,4,s
5990.204093,80,1,7.5,6.5,7.5,4,11,0,s
181.647758,89,1,8.3,6.88237,8.009683,9,22,16,m
3276.129365,85,1,9,6.88237,8.5,7,22,0,s
121.670724,74,3,7.9,6.88237,8.3,11,26.742663,11,s
19.688384,84,1,7.1,6.1,7.1,8.530885,32,0,m
3982.689517,85,3,8.2,6.5,8.1,9,33,12,s
540.800842,85,1,7.8,6.8,7.7,8,24,0,s
92.789586,85,1,9.1,7.2,8.3,8.530885,29,8,l
129.064126,85,1,9.1,7.2,8.3,8.530885,29,9,l
46.788289,83,3,7.5,6.88237,8.009683,9,20,11,m
2980.801798,81,1,7.8,6.6,8.1,8.530885,29,5,s
1266.748292,85,1,8.4,6.88237,8.5,8.530885,15,0,s
17029.97824,85,1,9.5,6.88237,8.5,12,33,0,s
703.750527,85,1,7.8,6.8,7.7,8,24,9,s
1954.937566,85,1,7.6,6.88237,8.009683,7,32,87,s
309.270728,85,1,6.9,6.88237,8.009683,8,9,0,s
2240.949013,60,1,8.6,7.4,8.5,8.530885,20,0,s
71.181515,85,3,7.5,6.9,7.2,9,10,0,m
263.191947,60,1,9.1,7,8.8,8.530885,30,7,l
15852.64058,89,1,8.8,7,8,8,35,10,s
17330.33387,85,1,8,6.6,7.3,7,46,9,s
3226.942114,80,1,8.5,7.7,8.1,9,13,6,s
45.861495,60,1,7.8,6.5,7.3,8.530885,20,5,m
103.495392,85,1,7.7,6.8,7.7,8,44,7,s
335.014681,82,1,7.1,6.88237,8.009683,8.530885,48,0,s
420.644612,85,1,9.1,7.2,8.3,8.530885,29,3,m
453.248404,83,1,7.1,6.88237,8.009683,8.530885,33,0,s
13169.05722,89,1,9.1,7.2,8.3,8.530885,29,1,m
669.141292,85,3,7.5,6.9,7.2,9,10,0,s
307.134145,85,1,9.1,7.2,8.3,8.530885,29,7,l
13785.57548,85,1,8.1,6.4,7.7,9,23,0,s
12.689801,85,1,7.9,6.88237,7.9,8.530885,35,18,m
1483.231631,84,1,7.6,6.88237,8.009683,7,32,23.263212,s
10855.8421,80,1,9.5,6.88237,8.5,12,33,0,m
122.20498,85,1,9.1,7.2,8.3,8.530885,29,8,l
146.77165,85,1,8.2,6.88237,8.009683,6,7,5,m
800.54136,85,0,8.30368,4.9,8.009683,8.530885,10,0,s
3579.074157,80,3,8.6,6.88237,7.3,6,15,50,s
237.995801,85,1,9.1,7.2,8.3,8.530885,29,17,l
2697.884061,85,1,8.7,7.7,7.8,6,30,8,s
5310.74253,80,1,9,6.88237,8.5,7,22,11,m
28.270309,83,1,7.9,6.3,7.6,6,24,8,m
108.805519,86,1,8.3,6.5,7.8,8.530885,10,0,l
12731.24249,89,1,7.9,6.4,7.4,8,24,0,s
14.429063,80,1,6.9,6.88237,8.009683,8.530885,60,0,s
9351.001652,80,1,8.1,6.88237,7.5,9,38,0,s
71.766238,82,1,7.6,6.5,7.8,8.530885,13,0,m
106.457561,85,1,9.1,7.2,8.3,8.530885,29,8,l
11737.63283,87,1,9.5,6.88237,8.5,12,33,0,s
940.982488,88,1,8.2,6.88237,8.009683,9,47,0,s
13302.32256,89,1,9.1,7.2,8.3,8.530885,29,15,m
664.520065,60,1,9.1,7,8.8,8.530885,30,8,l
18450.35125,84,1,8.8,7.2,8.5,9,22,11,s
266.094678,85,1,9.1,7.2,8.3,8.530885,29,5,m
110.836817,85,1,9.1,7.2,8.3,8.530885,29,8,m
67.311156,50,1,8.30368,6.88237,8.009683,9,26.742663,9,l
767.963405,85,1,7.6,6.88237,7.3,8.530885,74,0,s
1173.490375,82,1,6.9,6.88237,8.009683,7,20,12,s
258.938642,60,1,9.1,7,8.8,8.530885,30,21,l
10720.74299,81,1,8.8,7,8,8,35,0,s
9380.224211,81,1,9.1,7.2,8.3,8.530885,29,19,s
4044.205524,85,1,7.8,6.88237,8.009683,8,23,0,s
93.545605,85,1,8.1,6.88237,8,8.530885,30,0,s
545.228263,60,1,9.1,7,8.8,8.530885,30,0,s
9277.88946,81,1,8.3,6.88237,8.009683,9,22,23.263212,s
323.005821,85,1,7.1,6.3,7.1,8,50,4,s
216.337276,85,1,9.1,7.2,8.3,8.530885,29,7,m
16981.1793,85,1,9.5,6.88237,8.5,12,33,0,m
181.567911,89,1,8.3,6.88237,8.009683,9,22,23,m
250.503126,82,1,6.8,6.4,6.8,2,11,0,s
187.076917,85,1,6.5,6,6.6,8.530885,10,0,s
149.536808,85,1,9.1,7.2,8.3,8.530885,29,9,l
203.2702,89,1,8.2,6.88237,8.009683,8,25,8,m
273.042131,50,3,7.7,6.88237,7.8,9,20,164,s
261.046216,88,1,7,6.88237,8.009683,8.530885,33,0,m
2725.499726,81,1,8.3,6.88237,8.3,11,40,647,m
9310.147087,88,1,8.1,6.88237,8.009683,9,19,5,s
114.541168,85,1,9.1,7.2,8.3,8.530885,29,8,s
19.82671,85,3,7.5,6.9,7.2,9,10,7,m
328.274082,85,1,9.1,7.2,8.3,8.530885,29,5,l
3657.3722,80,3,8.6,6.88237,7.3,6,15,0,m
183.879103,89,1,8.3,6.88237,8.009683,9,22,5,m
2498.765671,60,1,9.1,7,8.8,8.530885,30,5,m
181.624857,89,1,8.3,6.88237,8.009683,9,22,14,m
90.309042,50,1,6.6,6.88237,8.009683,7,17,0,s
2108.703629,88,3,9.2,6.88237,8.4,10,25,64,s
105.857906,85,1,8.3,6.88237,8.1,8.530885,15,14,m
71.337023,85,1,7.7,6.8,7.7,8,44,0,s
33.143546,85,1,7.5,6.88237,8.009683,5,40,59,m
82.658609,85,1,9.1,7.2,8.3,8.530885,29,12,l
1945.145433,60,1,9.1,7,8.8,8.530885,30,3,l
297.193465,85,1,7.8,6.4,7.5,9,27,69,s
216.727026,85,1,9.1,7.2,8.3,8.530885,29,10,l
324.95919,85,1,7.4,6.4,7.4,6,29,5,s
13168.51152,87,1,8.8,7.2,8.5,9,22,0,s
10792.30034,80,1,7.1,6.88237,7.1,6,30,0,s
2476.348537,85,1,8.8,7,8,8,35,0,s
2748.178416,85,1,7.6,6.4,7.6,6,50,21,s
40.348478,50,1,7,6.88237,8.009683,8,21,8,m
133.492893,85,1,9.1,7.2,8.3,8.530885,29,7,m
181.296286,89,1,8.3,6.88237,8.009683,9,22,15,s
311.177017,85,1,9.1,7.2,8.3,8.530885,29,7,l
2030.063335,81,1,7.7,6.88237,8.009683,7,10,0,s
482.410744,50,1,6.8,6.88237,8.009683,8,14,0,s
260.433958,60,1,9.1,7,8.8,8.530885,30,11,l
1617.349057,60,1,9.1,7,8.8,8.530885,30,16,l
11090.20814,81,1,9.5,6.88237,8.5,12,33,0,s
61.333811,83,3,7.5,6.88237,8.009683,9,20,22,l
198.315977,89,1,8.3,6.88237,8.009683,9,22,14,m
739.936913,60,1,8.4,6.9,8.5,8.530885,34,4,s
196.421095,50,3,7.7,6.88237,7.8,9,20,8,s
4979.230381,88,1,8.8,7,8,8,35,12,s
72.543202,85,1,7.9,6.88237,7.9,8.530885,35,7,s
553.219113,85,1,9.1,7.2,8.3,8.530885,29,4,m
161.848581,82,1,8.1,6.8,7.9,8.530885,24,30,m
135.462809,89,1,8.5,6.88237,8.3,11,70,42,l
3803.650063,80,3,8.6,6.88237,7.3,6,15,0,m
209.318399,81,1,8.1,7.1,8.1,8.530885,18,15,m
4061.855435,88,1,8.2,8.2,8.3,6,25,5,s
67.348186,83,3,7.5,6.88237,8.009683,9,20,5,m
3949.257253,80,1,8.6,6.88237,9.1,8.530885,33,0,m
45.796974,89,1,8.8,7.2,8.5,9,22,13,l
182.955297,89,1,8.3,6.88237,8.009683,9,22,9,s
3960.140689,80,1,8.6,6.88237,9.1,8.530885,33,12,m
95.015505,50,1,6.6,6.88237,8.009683,7,17,0,s
272.577602,85,1,9.1,7.2,8.3,8.530885,29,7,l
106.166197,85,1,9.1,7.2,8.3,8.530885,29,8,l
340.370824,50,1,6,6.88237,8.009683,8,8,7,s
6216.261984,85,1,7.7,6.4,7.9,8.530885,33,10,s
23.383043,84,1,6.6,6.2,6.6,7,26,4,s
2665.358176,88,1,8.2,6.88237,8.009683,8,32,0,s
103.257001,84,1,6.8,6.4,6.4,8.530885,20,0,s
12392.93577,82,1,9.5,6.88237,8.5,12,33,11,s
38.04699,85,1,6.2,5.8,6.2,8,15,0,s
247.734212,85,1,9.1,7.2,8.3,8.530885,29,3,m
150.171676,89,1,8.3,6.88237,8.009683,9,22,12,m
435.210546,85,1,7.4,6.3,7.2,10,56,67,s
7286.275632,88,1,8.3,6.9,8.1,8.530885,27,0,s
74.71646,84,1,7.2,6.88237,7.2,10,26.742663,8,m
7287.244498,88,1,9.1,7.2,8.3,8.530885,29,0,s
138.359539,89,1,8.4,6.7,8.2,8,33,93,m
2356.620842,85,1,8.2,6.88237,7.8,9,30,4,s
277.734271,85,1,7.4,6.4,7.4,6,29,0,s
767.695352,60,1,9.1,7,8.8,8.530885,30,0,m
181.671391,89,1,8.3,6.88237,8.009683,9,22,19,m
93.357171,85,1,9.1,7.2,8.3,8.530885,29,14,l
6226.865927,80,1,9.1,7.2,8.3,8.530885,29,12,m
85.531066,50,3,7,6.88237,7.2,11,40,0,m
58.809766,87,3,8.2,6.88237,8.6,11,60,0,m
154.569317,89,1,8.3,6.88237,8.009683,9,22,26,m
2855.334319,85,1,8.8,7,8,8,35,136,s
140.906226,85,1,7.8,6.8,7.7,8,24,0,m
133.434694,85,1,9.1,7.2,8.3,8.530885,29,8,m
279.524174,85,1,9.1,7.2,8.3,8.530885,29,9,l
185.909972,85,1,9.1,7.2,8.3,8.530885,29,6,m
3761.98448,85,1,8.6,6.88237,9.1,8.530885,33,0,s
248.40566,60,1,7.7,6.1,7.2,8.530885,20,8,m
13301.97452,89,1,9.1,7.2,8.3,8.530885,29,0,m
245.364687,85,1,9.1,7.2,8.3,8.530885,29,0,l
27.737073,50,1,7,6.88237,8.009683,8,21,9,m
122.912071,85,1,9.1,7.2,8.3,8.530885,29,24,l
133.366506,85,1,9.1,7.2,8.3,8.530885,29,8,m
403.860514,85,1,9.1,7.2,8.3,8.530885,29,3,m
3099.692793,60,1,7.7,6.1,7.2,8.530885,20,8,s
4573.609829,81,1,9,6.88237,8.5,7,22,26,m
62.786947,83,1,7.6,6.7,7.5,8.530885,26,9,l
150.109654,89,1,8.3,6.88237,8.009683,9,22,11,m
161.066572,82,1,8.1,6.8,7.9,8.530885,24,31,m
9701.912055,81,1,9.1,7.2,8.3,8.530885,29,0,m
1264.183498,87,1,7.7,6.5,7.5,8.530885,14,0,s
3137.692743,81,1,7.7,6.88237,8.009683,7,10,0,s
182.957698,89,1,8.3,6.88237,8.009683,9,22,11,s
608.492047,60,1,9.1,7,8.8,8.530885,30,13,l
116.721443,85,1,9.1,7.2,8.3,8.530885,29,12,s
3827.048548,80,3,8.6,6.88237,7.3,6,15,12,m
5906.250342,80,1,8.4,6.88237,8.5,8.530885,15,0,s
13303.44426,89,1,9.1,7.2,8.3,8.530885,29,0,m
11163.31,80,1,9.5,6.88237,8.5,12,33,17,m
17421.52548,85,1,9.5,6.88237,8.5,12,33,11,s
8502.519113,81,1,9.1,7,8.8,8.530885,30,0,s
131.622077,83,1,7.1,6.88237,8.009683,8.530885,33,0,s
8485.780213,81,3,8.6,6.88237,7.3,6,15,0,m
3481.071186,88,1,8.6,6.88237,9.1,8.530885,33,12,s
254.6226,85,1,7.8,6.8,7.7,8,24,11,s
199.012825,85,1,8.2,6.88237,8.009683,6,7,35,m
71.877688,85,1,8.3,6.9,8.1,8.530885,27,8,m
178.411771,81,1,8.1,7.1,8.1,8.530885,18,18,m
3752.282926,81,1,8.1,7.1,8.1,8.530885,18,3,s
10080.12969,88,1,8.8,7.2,8.5,9,22,0,s
61.375087,83,3,7.5,6.88237,8.009683,9,20,19,l
146.163146,89,1,8.3,6.88237,8.009683,9,22,12,s
10997.34376,80,1,9.5,6.88237,8.5,12,33,14,s
3610.304513,81,1,8.1,6.8,7.9,8.530885,24,188,s
240.690485,60,1,7.8,5.7,7.2,8.530885,18,5,l
211.397017,85,1,7,6.1,6.8,8.530885,10,0,s
692.963327,89,1,8.3,6.88237,8.009683,9,22,0,s
1357.864736,81,1,8.1,6.88237,8.009683,9,19,0,s
2147.321756,85,1,8.8,7,8,8,35,69,s
7390.603277,81,1,8.8,7.2,8.5,9,22,14,m
7592.022179,81,1,9.5,6.88237,8.5,12,33,77,s
17090.47687,85,1,9.5,6.88237,8.5,12,33,0,s
75.902886,85,1,7.7,6.88237,8.009683,8.530885,40,0,s
3481.537628,80,3,8.6,6.88237,7.3,6,15,0,l
7644.944177,88,1,7.8,6.88237,7.8,8.530885,25,5,s
451.049174,85,1,7.3,6.4,7.3,8.530885,32,0,s
24.562088,50,1,7,6.88237,8.009683,8,21,7,s
13.144124,81,1,5.4,6.88237,8.009683,9,7,433,s
1056.480974,60,1,9.1,7,8.8,8.530885,30,9,m
261.422787,82,1,7.5,6.88237,8.009683,8.530885,10,486,m
6459.880698,85,3,7.7,6,7.2,9,2,0,s
4120.513224,88,3,8.6,6.88237,7.3,6,15,0,s
126.182175,60,1,8.4,6.9,8.5,8.530885,34,23,m
17430.75658,85,1,9.5,6.88237,8.5,12,33,16,s
1172.657181,85,1,8.3,6.88237,8.009683,10,40,0,s
99.761166,89,1,8.8,7.2,8.5,9,22,16,l
1773.238431,60,1,9.1,7,8.8,8.530885,30,6,l
546.032991,85,1,9.1,7.2,8.3,8.530885,29,6,m
67.311156,50,1,8.30368,6.88237,8.009683,9,26.742663,9,m
3053.021689,80,1,7.9,6.3,7.9,6,48,6,s
112.397125,85,1,7.5,6.88237,8.009683,5,40,8,s
2020.512799,85,1,9,6.88237,8.5,7,22,48,m
68.428415,82,1,7.6,6.5,7.8,8.530885,13,9,m
133.902311,85,1,9.1,7.2,8.3,8.530885,29,8,s
668.60779,81,1,8.1,7.1,8.1,8.530885,18,11,s
3798.672294,80,3,8.6,6.88237,7.3,6,15,107,l
131.944139,85,1,9.1,7.2,8.3,8.530885,29,8,m
57.191662,83,3,7.5,6.88237,8.009683,9,20,20,l
3527.201925,85,1,7.6,6.88237,7.6,8.530885,25,49,s
181.343124,89,1,8.3,6.88237,8.009683,9,22,13,s
181.576239,89,1,8.3,6.88237,8.009683,9,22,14,m
75.630437,89,1,8.8,7.2,8.5,9,22,10,l
267.62806,85,1,9.1,7.2,8.3,8.530885,29,6,l
6125.411689,85,3,9.2,6.88237,8.4,10,25,0,s
3713.539684,85,1,7.9,6.6,7.6,6,33,0,s
155.111649,81,1,7.6,7,7.8,8.530885,17,8,s
114.380489,85,1,9.1,7.2,8.3,8.530885,29,8,m
65.869764,85,3,7.5,6.9,7.2,9,10,12,m
102.287605,82,1,6.6,6.88237,8.009683,3,22,0,s
70.505045,85,1,7.7,6.88237,8.009683,8.530885,40,45,s
11882.66739,87,1,9.5,6.88237,8.5,12,33,72,s
3766.808667,80,1,8.6,6.88237,9.1,8.530885,33,0,m
1829.058868,85,1,7.4,6.9,7.5,8.530885,36,23.263212,s
241.655237,85,1,9.1,7.2,8.3,8.530885,29,10,l
2128.077265,81,1,7.6,7.2,7.6,8.530885,28,9,s
2328.535539,82,1,7.3,6.88237,8.009683,7,35,0,s
91.54155,85,1,8.1,6.88237,8,8.530885,30,9,m
34.700254,82,1,7.2,6.4,7.3,7,25,0,s
418.51069,85,1,9.1,7.2,8.3,8.530885,29,4,m
5.681495,85,3,7.5,6.9,7.2,9,10,7,m
154.464215,89,1,8.3,6.88237,8.009683,9,22,20,m
1681.347089,81,1,7.2,7.2,7.2,4,65,0,s
29.887801,81,1,8,6.88237,8,8.530885,33,13,l
346.195242,86,1,8.5,7.7,8.1,9,13,73,s
3845.609569,85,1,7.9,6.6,7.6,6,33,7,s
2896.831933,88,3,9.2,6.88237,8.4,10,25,24,m
409.413122,85,1,6.9,6.4,6.9,8.530885,33,0,s
289.536497,85,1,8.3,6.88237,7.6,8.530885,26.742663,0,m
237.770375,85,1,7.5,6.88237,7.5,7,30,10,s
6232.739955,80,1,9.1,7.2,8.3,8.530885,29,13,m
68.110084,83,3,7.5,6.88237,8.009683,9,20,16,l
2498.936883,60,1,9.1,7,8.8,8.530885,30,9,s
129.82422,85,1,9.1,7.2,8.3,8.530885,29,7,m
119.516324,85,1,9.1,7.2,8.3,8.530885,29,7,l
271.578535,85,1,7.5,6.88237,8.009683,5,40,0,s
88.971895,50,3,7.7,6.88237,7.8,9,20,0,m
202.289695,81,1,8.1,7.1,8.1,8.530885,18,18,m
246.499736,83,1,7.1,6.88237,8.009683,8.530885,33,301,s
2894.340221,81,1,7.6,6.4,7.6,6,50,0,s
131.343139,85,1,9.1,7.2,8.3,8.530885,29,6,l
1757.056937,60,1,9.1,7,8.8,8.530885,30,5,m
286.960714,85,1,9.1,7.2,8.3,8.530885,29,10,l
2657.074735,81,1,7.9,6.4,7.4,8,24,0,s
122.45432,85,1,7.5,6.88237,8.009683,5,40,6,m
10922.67348,89,1,8.7,7.7,7.8,6,30,0,s
181.325808,89,1,8.3,6.88237,8.009683,9,22,21,s
10268.18345,80,1,8.3,6.88237,8.3,11,40,17,l
79.368004,60,1,7.8,6.5,7.3,8.530885,20,4,l
18006.99006,84,1,8.8,7.2,8.5,9,22,0,s
490.040793,89,1,9.1,6.88237,8.7,11,26.742663,20,l
135.105183,85,1,9.1,7.2,8.3,8.530885,29,9,m
245.04712,85,1,8.3,6.9,8.1,8.530885,27,0,s
201.141813,81,1,8.1,7.1,8.1,8.530885,18,20,l
6275.43123,80,1,9.1,7.2,8.3,8.530885,29,14,m
432.204045,60,1,8.3,7,8,8.530885,25,5,m
479.138887,85,1,6.9,6.88237,8.009683,8,9,9,s
3481.380057,80,3,8.6,6.88237,7.3,6,15,0,m
12499.73205,81,1,8.3,6.88237,8.3,11,40,0,s
181.429683,89,1,8.3,6.88237,8.009683,9,22,15,s
1278.764095,81,1,7.6,6.4,7.3,8.530885,45,5,s
15.451011,81,3,6.4,6.88237,6.8,8.530885,33,13,m
183.177607,89,1,8.3,6.88237,8.009683,9,22,15,s
288.373173,85,1,6.6,6.88237,8.009683,8.530885,80,6,s
181.8249,89,1,8.3,6.88237,8.009683,9,22,15,m
10029.7336,89,1,8.1,7.1,8.1,8.530885,18,0,s
57.851385,60,1,9.1,7,8.8,8.530885,30,13,l
9690.480828,81,1,8.8,7.2,8.5,9,22,2,s
17219.69721,85,1,9.5,6.88237,8.5,12,33,7,s
271.642343,85,1,9.1,7.2,8.3,8.530885,29,3,l
68.182249,89,1,8.8,7.2,8.5,9,22,19,m
30.257031,88,1,8,6.8,8.1,9,28,5,m
286.393521,85,1,5.7,6.88237,8.009683,8.530885,10,0,s
6.151099,85,3,7.5,6.9,7.2,9,10,5,m
184.22565,85,1,6.9,6.6,6.9,8.530885,48,7,s
3668.166221,80,1,8.6,6.88237,9.1,8.530885,33,0,m
106.536901,85,1,9.1,7.2,8.3,8.530885,29,9,l
16682.456,85,1,8,6.6,7.3,7,46,0,s
80.770455,85,1,9.1,7.2,8.3,8.530885,29,9,l
267.697647,60,1,9.1,7,8.8,8.530885,30,14,l
177.375879,85,1,7.6,6.88237,7.6,8.530885,30,0,s
114.853025,85,1,7.3,6.4,7.3,8.530885,32,0,s
3818.345906,88,3,9.2,6.88237,8.4,10,25,5,s
1743.275158,82,1,8.1,6.88237,8.009683,9,19,17,s
3582.829757,80,3,8.6,6.88237,7.3,6,15,0,m
2498.110187,60,1,9.1,7,8.8,8.530885,30,0,m
1743.656676,82,1,8.1,6.88237,8.009683,9,19,0,s
134.045324,85,1,9.1,7.2,8.3,8.530885,29,7,l
160.193875,82,1,8.1,6.8,7.9,8.530885,24,30,m
39.533243,89,1,8.8,7.2,8.5,9,22,16,l
7015.736941,88,1,7.9,6.6,7.9,5,33,0,s
658.751079,86,1,7.8,6.8,7.7,8,24,5,m
182.162926,85,1,6.9,6.4,6.9,8.530885,33,7,s
10.179493,85,3,7.5,6.9,7.2,9,10,9,m
2505.947824,60,1,9.1,7,8.8,8.530885,30,2,s
379.83832,85,1,8.1,6.88237,8.3,9,45,0,s
369.380402,85,1,6.6,6.88237,8.009683,8.530885,60,0,s
10859.10297,81,1,9.5,6.88237,8.5,12,33,7,s
4804.444447,85,3,8.2,6.5,8.1,9,33,4,s
4883.362961,60,1,9.1,7,8.8,8.530885,30,5,m
263.113676,60,1,9.1,7,8.8,8.530885,30,6,l
17128.72884,85,1,9.5,6.88237,8.5,12,33,46,s
48.131738,50,1,7.6,6.3,7.8,10,13,0,s
1462.584259,86,1,8.8,7,8,8,35,62,s
3488.104705,80,3,8.6,6.88237,7.3,6,15,0,l
1711.367874,60,1,9.1,7,8.8,8.530885,30,8,m
9585.400933,81,1,9.1,7.2,8.3,8.530885,29,13,m
13235.45172,89,1,9.1,7.2,8.3,8.530885,29,8,m
5027.56315,80,1,8.4,6.88237,8.3,11,15,6,m
6240.497956,80,1,9.1,7.2,8.3,8.530885,29,18,m
183.070997,89,1,8.3,6.88237,8.009683,9,22,14,s
17057.40504,85,1,9.5,6.88237,8.5,12,33,10,m
470.576191,85,1,7.3,6.4,7.3,8.530885,32,0,s
181.42496,89,1,8.3,6.88237,8.009683,9,22,7,s
167.135799,81,1,8.1,7.1,8.1,8.530885,18,4,l
96.649509,87,3,7.5,6.4,7.7,8.530885,10,0,s
2065.73253,87,1,8.8,7,8,8,35,0,s
29.855178,50,1,5.6,6.88237,8.009683,8,15,944,s
107.303417,85,1,9.1,7.2,8.3,8.530885,29,14,l
66.984882,85,1,7.7,6.6,7.6,8,17,185,l
79.304498,85,1,7.5,6.88237,8.009683,5,40,0,m
259.673911,85,1,9.1,7.2,8.3,8.530885,29,10,m
187.800999,81,1,8.1,7.1,8.1,8.530885,18,8,m
20.850123,50,1,6.2,6.88237,8.009683,8.530885,10,5,s
600.471293,85,1,5.7,6.88237,8.009683,8.530885,10,95,s
2304.853914,88,1,7.8,6.88237,8.009683,8,28,12,s
336.643,85,1,7.4,6.6,7.4,10,66,26,s
143.581974,89,1,8.8,7.2,8.5,9,22,24,l
6.030567,85,3,7.5,6.9,7.2,9,10,5,m
181.811933,89,1,8.3,6.88237,8.009683,9,22,5,l
35.155472,82,1,7.6,6.5,7.8,8.530885,13,0,s
153.855628,85,1,9.1,7.2,8.3,8.530885,29,0,l
117.370363,85,1,9.1,7.2,8.3,8.530885,29,9,m
93.659632,85,1,9.1,7.2,8.3,8.530885,29,10,m
18895.05329,84,1,8.8,7.2,8.5,9,22,0,s
6558.724112,85,1,7.7,6.4,7.9,8.530885,33,6,s
119.781582,84,1,7.4,6.88237,8.009683,8.530885,34,6,s
66.609932,89,1,8.8,7.2,8.5,9,22,25,l
96.509223,85,1,9.1,7.2,8.3,8.530885,29,13,l
1987.950336,85,1,7.5,6.4,7.3,8.530885,33,7,s
181.382324,89,1,8.3,6.88237,8.009683,9,22,15,s
3959.003235,87,1,9.1,7.2,8.3,8.530885,29,23.263212,s
3.965561,74,9,8.30368,6.88237,8.009683,8.530885,26.742663,10,m
322.646411,85,1,7.2,6,7.2,8.530885,44,0,s
145.910444,85,1,8.3,6.88237,8.3,8.530885,26.742663,360,l
5389.457077,88,1,8.8,7,8,8,35,0,s
5937.361089,80,1,9.1,7.2,8.3,8.530885,29,12,s
667.710046,60,1,9.1,7,8.8,8.530885,30,10,l
9581.289638,88,1,7.6,6.4,7.3,8.530885,45,0,s
37.842038,89,1,8.3,6.88237,8.009683,9,22,4,l
1877.396676,82,1,8.1,6.8,7.9,8.530885,24,19,m
1950.812636,85,1,9,6.88237,8.5,7,22,5,m
181.272756,89,1,8.3,6.88237,8.009683,9,22,23,s
32.380852,85,1,7.9,6.88237,7.9,8.530885,35,0,l
11149.05315,80,1,9.5,6.88237,8.5,12,33,15,m
12033.16755,89,1,8.3,6.5,7.8,8.530885,10,15,s
13212.87586,89,1,9.1,7.2,8.3,8.530885,29,9,s
3377.10007,80,1,7.9,6.88237,7.2,8.530885,28,0,s
64.292368,81,1,7.8,6.88237,8.009683,9,15,0,s
121.129887,85,1,9.1,7.2,8.3,8.530885,29,6,m
271.558297,85,1,9.1,7.2,8.3,8.530885,29,4,l
1783.681594,60,1,9.1,7,8.8,8.530885,30,5,l
498.442673,85,1,9.1,7.2,8.3,8.530885,29,7,m
50.732792,85,3,7.5,6.9,7.2,9,10,5,m
148.275671,85,1,8.3,6.88237,8.1,8.530885,15,0,s
288.912527,85,1,8.4,6.88237,8.5,8.530885,15,62,m
133.538162,60,1,7.8,6.5,7.3,8.530885,20,13,m
43.854576,60,1,7.8,6.5,7.3,8.530885,20,5,m
4.782165,75,1,8.30368,6.88237,8.009683,8.530885,26.742663,0,m
201.985276,81,1,8.1,7.1,8.1,8.530885,18,14,m
31.447581,50,1,7,6.88237,8.009683,8,21,5,m
5930.50729,80,1,9.1,7.2,8.3,8.530885,29,10,m
187.109743,85,1,7.5,6.88237,8.009683,5,40,0,s
3241.216688,85,1,7.6,6.88237,8.009683,7,32,9,s
16804.48727,85,1,9.5,6.88237,8.5,12,33,9,l
347.462039,60,1,8.5,6.88237,8.5,9,70,0,s
3329.855474,88,1,7.9,6.88237,8.009683,6,109,0,s
258.777379,85,1,9.1,7.2,8.3,8.530885,29,7,s
81.307891,82,1,7.3,6.7,7.8,8.530885,33,13,m
130.786893,73,1,6.7,7.1,6.5,10,16,0,s
126.540801,85,1,9.1,7.2,8.3,8.530885,29,10,m
3910.995377,80,3,7.5,6.88237,7.5,8,26.742663,7,m
173.154604,85,1,7.5,6.88237,8.009683,8.530885,33,0,s
350.83507,85,1,9.1,7.2,8.3,8.530885,29,20,m
7545.791449,81,3,8.6,6.88237,7.3,6,15,0,s
79.634606,60,1,7.8,6.5,7.3,8.530885,20,7,m
85.771142,60,1,9.1,7,8.8,8.530885,30,0,s
398.029445,85,1,6.9,6.7,6.9,8.530885,10,6,s
2631.919022,60,1,8.6,7.2,8.4,8.530885,30,0,s
263.248866,85,1,8.1,6.88237,8.3,9,45,1,m
2195.379852,60,1,9.1,7,8.8,8.530885,30,1,m
93.511582,85,1,9.1,7.2,8.3,8.530885,29,12,l
104.071855,85,1,9.1,7.2,8.3,8.530885,29,7,m
166.728393,81,1,8.1,7.1,8.1,8.530885,18,9,m
1708.746218,85,1,7.6,7.2,7.6,8.530885,28,12,s
2725.499726,85,1,8.2,6.88237,8.009683,6,7,647,m
3658.606365,80,3,8.6,6.88237,7.3,6,15,0,m
1461.355933,87,1,7.8,6.2,7.2,8.530885,33,15,s
3907.724313,85,1,8.7,7.7,7.8,6,30,8,s
114.252278,85,1,9.1,7.2,8.3,8.530885,29,10,l
3519.123827,80,3,8.6,6.88237,7.3,6,15,18,m
280.268157,85,1,7.1,6.88237,8.009683,8.530885,20,0,s
134.889548,85,1,9.1,7.2,8.3,8.530885,29,10,l
226.594703,60,1,7.8,5.7,7.2,8.530885,18,18,m
6308.601856,80,1,9.1,7.2,8.3,8.530885,29,9,m
3101.469374,85,1,8.8,7,8,8,35,0,s
257.78945,60,1,9.1,7,8.8,8.530885,30,7,l
182.839057,89,1,8.3,6.88237,8.009683,9,22,20,m
1125.027308,85,1,7.7,6.5,7.7,8,48,0,s
16896.07886,85,1,8.3,6.88237,8.009683,9,22,0,s
4750.643044,85,3,9.2,6.88237,8.4,10,25,15,s
13235.44529,89,1,9.1,7.2,8.3,8.530885,29,8,m
272.093292,85,1,9.1,7.2,8.3,8.530885,29,7,l
1037.007679,84,1,7.7,6.6,7.6,8,17,0,m
181.486206,89,1,8.3,6.88237,8.009683,9,22,20,s
3957.725242,88,1,7.8,7.9,7.5,5,50,0,s
14834.47785,89,1,8.8,7,8,8,35,0,s
72.641594,50,1,7,6.88237,8.009683,8,21,22,s
17010.11572,85,1,9.5,6.88237,8.5,12,33,0,m
17129.95243,85,1,9.5,6.88237,8.5,12,33,258,m
182.53239,89,1,8.3,6.88237,8.009683,9,22,10,s
14318.85468,75,1,9.1,7,8.8,8.530885,30,8,s
11699.85121,80,1,9.1,7,8.8,8.530885,30,0,s
69.751771,83,3,7.5,6.88237,8.009683,9,20,10,s
2279.309493,85,1,7.5,6.5,7.5,4,11,6,s
812.182638,85,1,7,6.88237,7,8.530885,34,7,s
261.66237,85,1,9.1,7.2,8.3,8.530885,29,10,l
12296.35453,82,1,7.7,6.7,7.4,8,40,0,s
2506.164717,60,1,9.1,7,8.8,8.530885,30,7,s
134.440269,85,1,9.1,7.2,8.3,8.530885,29,11,l
18.906082,82,1,7.1,6.4,7.1,8.530885,25,24,l
423.485955,85,1,9.1,7.2,8.3,8.530885,29,4,m
38.043244,83,3,7.5,6.88237,8.009683,9,20,16,m
192.0255,81,1,8.1,7.1,8.1,8.530885,18,9,m
4432.636421,80,3,9.2,6.88237,8.4,10,25,0,m
11.288389,50,1,5.3,5.1,4.8,8.530885,27,-397,s
69.625524,83,3,7.5,6.88237,8.009683,9,20,14,l
3535.867192,80,1,8.6,6.88237,9.1,8.530885,33,0,m
154.826672,89,1,8.3,6.88237,8.009683,9,22,13,l
3242.272148,85,1,8,6.4,7.9,6,33,0,s
2725.499726,85,1,8.1,6.88237,8.3,9,45,647,m
88.777103,85,1,9.1,7.2,8.3,8.530885,29,7,s
1726.59775,60,1,9.1,7,8.8,8.530885,30,9,l
6308.05101,80,1,9.1,7.2,8.3,8.530885,29,17,m
699.678442,89,1,9.5,6.88237,8.5,12,33,7,l
371.637558,80,4,6.9,6.88237,8.009683,7,6,0,s
181.486722,89,1,8.3,6.88237,8.009683,9,22,14,s
5411.005643,60,1,9.1,7,8.8,8.530885,30,0,m
132.954619,89,1,8.8,7.2,8.5,9,22,10,l
8996.478958,81,1,8.3,6.5,7.8,8.530885,10,10,s
103.281108,85,1,9.1,7.2,8.3,8.530885,29,10,s
4818.50919,60,1,9.1,7,8.8,8.530885,30,7,m
332.583096,86,1,7.7,6.6,7.6,8,17,26,m
5067.605553,80,1,8.4,6.88237,8.3,11,15,0,s
3649.089479,80,3,8.6,6.88237,7.3,6,15,0,m
337.586779,85,1,7.8,6.8,7.7,8,24,19,s
9549.350126,81,1,9.1,7.2,8.3,8.530885,29,10,m
2127.116941,88,3,9.2,6.88237,8.4,10,25,9,m
11869.41032,87,1,8.2,6.88237,8.009683,8,25,0,s
182.214429,89,1,8.3,6.88237,8.009683,9,22,6,s
16893.09302,85,1,8.3,6.88237,8.009683,9,22,0,s
182.785354,89,1,8.3,6.88237,8.009683,9,22,10,m
3632.500257,80,3,8.6,6.88237,7.3,6,15,39,m
195.381123,89,1,8.3,6.88237,8.009683,9,22,0,m
277.026713,85,1,8.4,6.88237,8.5,8.530885,15,134,l
851.287028,85,1,9.1,7.2,8.3,8.530885,29,7,m
17769.96517,85,1,8,6.7,7.8,8,40,0,s
9.119682,85,3,7.5,6.9,7.2,9,10,5,m
186.620721,85,1,7.5,6.88237,8.009683,5,40,138,m
454.990078,85,1,7.9,6.88237,7.9,9,40,146,m
176.907563,83,1,7.1,6.88237,8.009683,8.530885,33,0,s
1787.164265,81,1,7.2,7.2,7.2,4,65,0,s
17667.33682,85,1,9.5,6.88237,8.5,12,33,0,m
1738.247912,60,1,9.1,7,8.8,8.530885,30,8,l
3555.540202,80,3,8.6,6.88237,7.3,6,15,0,l
1902.963218,85,1,7.5,6.4,7.3,8.530885,33,21,s
9690.367461,81,1,9.1,7.2,8.3,8.530885,29,8,m
3601.20912,80,3,8.6,6.88237,7.3,6,15,8,m
4827.101572,60,1,9.1,7,8.8,8.530885,30,9,m
3499.875295,80,3,8.6,6.88237,7.3,6,15,6,m
2725.499726,85,1,8.3,6.88237,8.1,8.530885,15,647,m
488.35601,87,1,7.9,6.88237,8.009683,6,109,0,s
90.379824,50,3,7.7,6.88237,7.8,9,20,3,s
2207.062234,88,1,8,6.8,8.1,9,28,3,s
2725.499726,60,3,7.8,6.5,7.5,11,28,647,m
1977.21203,81,1,7.8,6.88237,7.8,7,26.742663,104,s
461.930417,85,1,9.1,7.2,8.3,8.530885,29,8,s
2725.499726,85,1,8.1,6.88237,8.3,9,45,647,s
18414.94935,84,1,8.8,7.2,8.5,9,22,0,s
4955.719793,80,1,7.8,6.88237,8.009683,8.530885,25,11,s
8783.046169,81,1,8.8,7,8,8,35,23.263212,s
7601.33499,88,1,8.3,6.9,8.1,8.530885,27,0,s
5553.972016,80,1,7.6,6.4,7.3,8.530885,45,11,s
96.944524,85,1,6.9,6.7,6.9,8.530885,10,0,s
9577.068376,73,1,8.1,6.88237,8.009683,8.530885,48,0,s
392.946699,84,1,7.5,6.4,7.3,8.530885,33,0,s
227.628655,81,1,8.1,7.1,8.1,8.530885,18,9,l
281.724301,85,1,5.7,5.4,5.1,8.530885,33,21,s
116.562712,85,1,8.3,6.88237,8.1,8.530885,15,10,m
80.597129,60,1,8.6,7.2,8.4,8.530885,30,0,m
166.706042,81,1,8.1,7.1,8.1,8.530885,18,9,m
8242.49816,88,1,8.5,6.88237,8.5,11,25,0,s
266.021854,85,1,9.1,7.2,8.3,8.530885,29,6,l
301.068284,85,1,8.2,6.88237,8.009683,6,7,33,m
71.605944,85,1,8.3,6.9,8.1,8.530885,27,3,m
50.530254,86,1,7.1,6.3,7.1,9,9,10,m
122.753885,85,1,9.1,7.2,8.3,8.530885,29,6,m
9810.685932,88,1,8.8,7.2,8.5,9,22,0,s
181.558967,85,1,7.7,6.88237,8.009683,8.530885,40,0,s
353.452763,85,1,6.6,6.2,6.6,5,14,0,s
181.815423,89,1,8.3,6.88237,8.009683,9,22,15,m
10256.08402,88,1,8.1,6.88237,8.009683,9,19,12,s
16920.79604,85,1,8,6.6,7.3,7,46,46,s
18385.37987,85,1,8.3,6.88237,8.009683,9,22,32,s
9545.607793,81,1,9.1,7.2,8.3,8.530885,29,28,m
169.580702,88,1,7.2,6.3,7.1,8,15,0,s
9706.857711,81,1,9.1,7.2,8.3,8.530885,29,8,m
272.104785,85,1,9.1,7.2,8.3,8.530885,29,9,l
5009.502832,80,1,9,6.88237,8.5,7,22,3,s
11092.23749,81,1,9.5,6.88237,8.5,12,33,0,s
57.364701,85,1,6.6,6.2,6.6,5,14,12,s
96.354414,85,1,9.1,7.2,8.3,8.530885,29,14,l
7.1441,85,3,7.5,6.9,7.2,9,10,5,m
38.401387,60,1,7.8,6.5,7.3,8.530885,20,16,l
413.78239,85,1,9.1,7.2,8.3,8.530885,29,6,m
181.623524,89,1,8.3,6.88237,8.009683,9,22,20,m
2081.936054,88,1,8.2,6.88237,8.009683,8,32,0,s
378.972757,84,1,7,6.4,7.3,8.530885,10,23,s
68.135352,89,1,8.8,7.2,8.5,9,22,17,l
15549.78617,81,1,8.8,7.2,8.5,9,22,9,s
6.979561,85,3,7.5,6.9,7.2,9,10,9,m
131.42057,82,1,7.5,6.4,7.3,8.530885,33,181,m
5657.924793,80,1,8.3,6.88237,7.6,8.530885,26.742663,4,s
3956.085177,80,1,8.6,6.88237,9.1,8.530885,33,0,m
121.275942,74,1,7.3,6.88237,8.009683,10,33,0,s
17590.16407,85,1,9.5,6.88237,8.5,12,33,0,s
120.596756,60,1,8.4,6.9,8.5,8.530885,34,12,s
7093.937299,88,1,9.1,7.2,8.3,8.530885,29,0,s
6307.719521,80,1,9.1,7.2,8.3,8.530885,29,0,m
967.256164,81,1,7.5,6.88237,8.009683,8.530885,10,5,s
227.986656,85,1,9.1,7.2,8.3,8.530885,29,11,m
61.020094,40,3,7.3,6.4,7.7,7,19,-28,s
27.517284,50,3,7,6.88237,7.2,11,40,0,l
803.609742,88,1,7.7,6.5,7.5,8.530885,14,0,s
161.820736,86,1,8.3,6.5,7.8,8.530885,10,0,l
175.512051,85,1,8,6.88237,8,5,26.742663,184,l
157.032479,88,1,7.2,6.2,7.1,4,10,0,s
11153.79107,80,1,9.5,6.88237,8.5,12,33,6,m
5211.841251,89,1,7.6,5.4,7.7,8.530885,30,0,s
131.447888,89,1,8,6.7,7.9,8,39,0,m
11153.4423,80,1,9.5,6.88237,8.5,12,33,5,m
181.55717,89,1,8.3,6.88237,8.009683,9,22,13,m
269.238402,85,1,8.2,6.88237,8.009683,6,7,0,s
6910.150087,87,1,7.9,6.3,7.9,6,48,8,s
418.236223,85,1,9.1,7.2,8.3,8.530885,29,4,m
149.886303,85,1,6,6.88237,6,8.530885,60,0,s
3239.545199,85,1,7.6,6.88237,8.009683,7,32,22,s
722.674661,88,1,7.7,6.5,7.5,8.530885,14,0,s
39.318826,85,1,7.9,6.88237,7.9,8.530885,35,50,l
653.948609,85,1,9.1,7.2,8.3,8.530885,29,9,m
110.841489,82,1,8.1,6.8,7.9,8.530885,24,10,m
385.415466,50,1,7.8,6.88237,8.009683,9,17,0,s
2725.499726,85,1,8.3,6.88237,8.1,8.530885,15,647,s
74.494957,81,3,6.4,6.88237,6.8,8.530885,33,12,l
2526.602335,60,1,7.8,6.5,7.3,8.530885,20,12,s
7218.777538,73,1,8.6,8,8.6,11,33,150,s
350.08729,87,1,8.2,6.88237,8.009683,8,32,0,s
37.554472,85,1,7.9,6.88237,7.9,8.530885,35,104,l
135.675962,85,1,9.1,7.2,8.3,8.530885,29,21,l
2115.929109,60,1,9.1,7,8.8,8.530885,30,6,l
1609.329404,89,1,8.3,6.88237,8.3,11,40,0,m
226.974977,85,1,9.1,7.2,8.3,8.530885,29,14,l
522.377008,85,1,8.2,6.88237,7.8,9,30,5,s
10219.59402,88,1,8.5,6.88237,8.3,11,70,12,s
816.256129,85,1,8.2,6.88237,8.009683,6,7,21,s
4481.328024,60,1,9.1,7,8.8,8.530885,30,0,s
14.651496,84,1,6.6,6.2,6.6,7,26,8,m
119.875536,85,1,9.1,7.2,8.3,8.530885,29,10,m
5189.553839,88,3,7.7,6,7.2,9,2,4,s
1200.402499,60,1,7.8,5.7,7.2,8.530885,18,13,s
248.289161,85,1,8.3,6.88237,7.6,8.530885,26.742663,95,m
9614.675306,73,1,8.1,6.88237,8.009683,8.530885,48,4,s
248.096992,60,1,9.1,7,8.8,8.530885,30,10,m
189.120778,81,1,8.1,7.1,8.1,8.530885,18,7,l
261.863351,60,1,7.8,5.7,7.2,8.530885,18,22,m
949.267349,86,1,8.8,7,8,8,35,0,s
51.711504,60,1,7.8,6.5,7.3,8.530885,20,15,s
11153.00805,80,1,9.5,6.88237,8.5,12,33,3,m
1977.480941,82,1,8.1,6.88237,8.009683,9,19,0,s
3805.412492,80,3,8.6,6.88237,7.3,6,15,0,l
155.905709,85,1,8.3,6.88237,8.1,8.530885,15,0,m
479.536105,85,1,8.5,7.7,8.1,9,13,6,s
126.195031,85,1,9.1,7.2,8.3,8.530885,29,7,s
9393.8217,88,1,7.9,6.4,7.4,8,24,0,s
386.368925,85,1,8.1,6.88237,8.3,9,45,0,s
11199.41379,88,1,7.6,6.6,7.5,8.530885,17,0,s
3198.635946,60,1,7.8,6.5,7.3,8.530885,20,0,s
227.95103,81,1,8.1,7.1,8.1,8.530885,18,19,m
10145.9611,81,1,8.3,6.5,7.8,8.530885,10,0,s
17.352734,85,3,7.5,6.9,7.2,9,10,8,m
98.085843,85,1,9.1,7.2,8.3,8.530885,29,11,l
231.69928,85,1,6.5,6.88237,8.009683,5,20,0,s
17043.11363,85,1,9.5,6.88237,8.5,12,33,9,s
1201.753134,88,1,7.7,6.5,7.5,8.530885,14,12,s
1737.011135,60,1,9.1,7,8.8,8.530885,30,8,l
2108.276864,60,1,9.1,7,8.8,8.530885,30,0,m
1717.958704,60,1,9.1,7,8.8,8.530885,30,14,l
69.568302,83,3,7.5,6.88237,8.009683,9,20,17,s
537.81283,87,3,9.2,6.88237,8.4,10,25,386,m
45.093344,88,1,7.2,6.3,7.1,8,15,0,s
27.822729,50,1,7,6.88237,8.009683,8,21,6,s
10793.06417,88,3,8.2,6.5,8.1,9,33,0,s
578.037294,74,3,7,6.8,7.3,8.530885,13,23.263212,s
2423.464677,85,1,7.5,6.5,7.5,4,11,95,s
1141.271062,81,1,8.1,7.1,8.1,8.530885,18,5,s
682.478362,74,1,7.3,6.88237,8.009683,10,33,579,s
116.225191,85,1,9.1,7.2,8.3,8.530885,29,25,l
137.473764,88,1,7.6,5.4,7.7,8.530885,30,0,l
127.78856,60,1,7.8,6.5,7.3,8.530885,20,8,s
107.211898,80,3,7.7,6,7.2,9,2,0,m
181.526053,89,1,8.3,6.88237,8.009683,9,22,14,m
1953.069728,85,1,9,6.88237,8.5,7,22,0,s
492.02214,82,1,7.7,6.88237,8.009683,8.530885,37,3,s
9798.663903,88,1,9.5,6.88237,8.5,12,33,0,s
114.877855,85,1,9.1,7.2,8.3,8.530885,29,11,m
27.645531,50,1,7,6.88237,8.009683,8,21,5,m
95.484376,85,1,9.1,7.2,8.3,8.530885,29,6,l
973.064575,73,1,7.8,6.88237,7.3,7,22,0,s
3816.535829,81,1,9.1,7.2,8.3,8.530885,29,23.263212,s
2492.930792,60,1,9.1,7,8.8,8.530885,30,6,m
4865.566163,85,1,7.9,6.4,7.4,8,24,0,s
59.910854,85,1,7.4,6.88237,7.4,8.530885,26.742663,0,m
3492.206984,80,3,8.6,6.88237,7.3,6,15,8,l
89.731888,85,1,9.1,7.2,8.3,8.530885,29,10,m
78.89897,85,1,9.1,7.2,8.3,8.530885,29,10,l
60.937269,84,1,6.6,6.2,6.6,7,26,3,s
81.977642,50,1,6.2,6.88237,8.009683,8.530885,64,2,s
555.235261,85,1,7.8,6.8,7.7,8,24,56,s
36.684454,85,1,6.1,6,6.1,8.530885,10,21,s
1637.546573,73,1,8.5,6.88237,8.009683,11,26.742663,8,m
129.057368,85,1,9.1,7.2,8.3,8.530885,29,6,m
84.272664,85,1,9.1,7.2,8.3,8.530885,29,6,s
6427.254398,85,1,7.7,6.4,7.9,8.530885,33,0,s
105.757364,85,1,9.1,7.2,8.3,8.530885,29,12,l
4380.255163,60,1,9.1,7,8.8,8.530885,30,12,s
97.127161,89,1,8,6.7,7.9,8,39,11,m
17079.88685,85,1,8.3,6.88237,8.009683,9,22,7,s
328.519712,50,1,6.8,6.88237,8.009683,8,14,33,s
4612.936139,80,3,9.2,6.88237,8.4,10,25,11,m
1233.647947,85,1,9.1,7.2,8.3,8.530885,29,0,s
39.242876,60,1,7.8,6.5,7.3,8.530885,20,0,l
9175.76661,81,1,9.1,7,8.8,8.530885,30,0,s
13303.45816,89,1,9.1,7.2,8.3,8.530885,29,0,m
30.83544,50,1,7,6.88237,8.009683,8,21,6,m
34.711756,82,1,7.5,6.4,7.3,8.530885,33,95,m
7634.94638,81,1,9.5,6.88237,8.5,12,33,5,s
46.152074,60,1,7.8,6.5,7.3,8.530885,20,18,l
15750.74822,86,1,9.5,6.88237,8.5,12,33,78,s
15760.82757,86,1,9.5,6.88237,8.5,12,33,7,l
39.930703,85,1,7.9,6.88237,7.9,8.530885,35,87,s
9234.815276,88,1,7.9,6.4,7.4,8,24,0,s
119.629999,85,1,7.5,6.88237,8.009683,5,40,0,s
3792.155302,85,3,8.2,6.5,8.1,9,33,95,s
288.067226,85,1,7.2,6.7,7,8.530885,14,21,s
94.450078,88,1,8.2,6.88237,8.009683,9,47,3,m
6208.138196,80,1,9.1,7.2,8.3,8.530885,29,16,m
260.662315,89,1,8.8,7.2,8.5,9,22,15,l
1687.508029,60,1,9.1,7,8.8,8.530885,30,14,m
223.251065,85,1,8.4,6.88237,8.5,8.530885,15,63,l
1090.022768,85,1,5.7,6.88237,8.009683,8.530885,10,103,s
7451.268292,88,1,8.8,7.2,8.5,9,22,0,s
279.246095,80,1,6.9,6.88237,8.009683,8.530885,60,0,s
50.851535,85,3,7.5,6.9,7.2,9,10,7,m
1967.932346,85,1,9,6.88237,8.5,7,22,0,m
60.267538,83,3,7.5,6.88237,8.009683,9,20,12,l
5232.474998,88,1,8.8,7,8,8,35,0,s
2725.499726,85,1,7.5,6.88237,8.009683,5,40,647,s
62.61878,83,3,7.5,6.88237,8.009683,9,20,19,m
6.082086,85,3,7.5,6.9,7.2,9,10,6,m
16969.40497,85,1,9.5,6.88237,8.5,12,33,0,m
318.507721,85,1,5.5,5.5,5.5,8.530885,41,6,s
6100.436297,81,1,7.7,6.5,7.5,8.530885,14,0,s
183.3044,89,1,8.3,6.88237,8.009683,9,22,8,s
94.580287,85,1,9.1,7.2,8.3,8.530885,29,19,l
78.282367,82,1,7.6,6.5,7.8,8.530885,13,7,s
18.55341,85,1,7.7,6.5,7.7,8,48,11,m
2725.499726,81,3,7.1,6.88237,7.2,4,12,647,l
127.73555,60,1,7.8,6.5,7.3,8.530885,20,11,m
97.971411,85,1,9.1,7.2,8.3,8.530885,29,8,m
8343.691596,88,1,8.2,6.88237,8.009683,8,25,0,s
97.467443,85,1,9.1,7.2,8.3,8.530885,29,12,l
30.270286,50,1,7,6.88237,8.009683,8,21,5,s
181.319995,89,1,8.3,6.88237,8.009683,9,22,13,s
15.356756,84,1,7.1,6.1,7.1,8.530885,32,10,m
718.879541,88,1,8,6.6,7.4,8.530885,33,0,s
2502.077611,85,1,7.8,7.1,8,9,59,0,s
272.698416,85,1,8.4,6.88237,8.5,8.530885,15,0,m
5085.744187,60,1,8.4,6.9,8.5,8.530885,34,0,s
6159.061947,88,3,9.2,6.88237,8.4,10,25,8,s
277.092864,85,1,7.5,6.88237,8.009683,5,40,5,s
7356.80817,88,1,9.1,7.2,8.3,8.530885,29,0,s
473.651759,85,1,9.1,7.2,8.3,8.530885,29,9,m
205.424271,85,1,9.1,7.2,8.3,8.530885,29,23,l
263.644898,85,1,7.4,6.88237,7.4,8.530885,60,0,s
2107.48742,60,1,9.1,7,8.8,8.530885,30,3,m
17755.71772,85,1,9.5,6.88237,8.5,12,33,8,m
180.415979,85,1,9.1,7.2,8.3,8.530885,29,12,l
782.974268,60,3,7.7,6.88237,8.009683,4,15,23.263212,s
17842.82401,85,1,8.4,6.7,8.2,8,33,24,s
9383.331276,88,1,7.6,6.4,7.3,8.530885,45,0,s
4200.921012,85,3,7,5.8,7.1,8.530885,25,7,s
10451.09508,80,1,7.1,6.88237,7.1,6,30,11,s
57.980492,60,1,9.1,7,8.8,8.530885,30,27,l
122.510738,85,1,9.1,7.2,8.3,8.530885,29,8,l
584.790449,85,1,7.3,6.4,7.3,8.530885,32,0,s
35.554943,60,1,7.8,6.5,7.3,8.530885,20,10,l
8298.168896,88,1,8.1,6.88237,8.3,9,45,0,s
8.296742,84,1,6.7,6.3,6.6,8,11,6,s
56.890841,85,1,8.3,6.9,8.1,8.530885,27,0,m
61.092782,83,3,7.5,6.88237,8.009683,9,20,20,l
199.019375,81,1,8.1,7.1,8.1,8.530885,18,17,l
14458.14874,89,1,8.8,7,8,8,35,0,s
180.806463,89,1,8.3,6.88237,8.009683,9,22,0,m
2725.499726,85,1,8.3,6.88237,8.1,8.530885,15,647,m
154.01221,85,1,9.1,7.2,8.3,8.530885,29,23,l
114.887343,85,1,9.1,7.2,8.3,8.530885,29,3,m
182.796494,89,1,8.3,6.88237,8.009683,9,22,24,s
80.415161,85,3,7.5,6.9,7.2,9,10,5,m
8628.670921,88,1,9.1,7.2,8.3,8.530885,29,10,s
6043.049754,60,1,9.1,7,8.8,8.530885,30,0,s
79.041407,85,1,8.2,6.88237,8.2,8.530885,26.742663,0,m
2725.499726,60,1,6.9,6.88237,8.009683,8,34,647,s
191.552122,85,1,9.1,7.2,8.3,8.530885,29,13,l
65.290137,83,3,7.5,6.88237,8.009683,9,20,16,m
10766.26352,80,1,8.5,6.88237,8.5,10,26.742663,0,l
305.410578,85,1,9.1,7.2,8.3,8.530885,29,8,m
17940.96544,85,1,9.5,6.88237,8.5,12,33,0,s
16981.84413,85,1,9.5,6.88237,8.5,12,33,190,l
55.797765,85,1,7.7,6.5,7.7,8,48,3,m
181.617768,89,1,8.3,6.88237,8.009683,9,22,13,l
8325.745963,89,3,9.2,6.88237,8.4,10,25,7,s
717.660373,50,1,6.8,6.5,6.9,10,12,10,s
65.068626,83,3,7.5,6.88237,8.009683,9,20,13,l
114.978133,85,1,9.1,7.2,8.3,8.530885,29,17,l
105.492175,85,1,9.1,7.2,8.3,8.530885,29,9,l
61.062382,85,1,7,6.4,6.7,8.530885,39,6,s
124.899808,85,1,9.1,7.2,8.3,8.530885,29,12,l
69.680673,83,3,7.5,6.88237,8.009683,9,20,12,l
272.601336,85,1,9.1,7.2,8.3,8.530885,29,6,l
181.741934,89,1,8.3,6.88237,8.009683,9,22,13,s
211.701815,84,1,8,6.4,7.9,6,33,12,m
1718.053469,85,1,8.3,6.5,7.8,8.530885,10,7,s
269.007312,85,1,8.4,6.88237,8.5,8.530885,15,0,m
13925.78594,85,1,8.1,6.4,7.7,9,23,0,s
504.285322,85,1,9.1,7.2,8.3,8.530885,29,5,s
3854.213502,80,3,8.6,6.88237,7.3,6,15,0,m
67.314262,83,3,7.5,6.88237,8.009683,9,20,23,m
73.614706,50,3,7,6.88237,7.2,11,40,0,l
87.090895,85,1,8.3,6.9,8.1,8.530885,27,7,m
1800.350847,60,1,9.1,7,8.8,8.530885,30,8,m
138.474098,88,1,8,6.8,8.1,9,28,2,m
244.654676,85,1,8.3,6.88237,8.1,8.530885,15,52,m
98.79173,85,1,8.3,6.9,8.1,8.530885,27,8,m
4820.036526,80,1,9,6.88237,8.5,7,22,0,l
5372.739141,80,1,8.4,6.88237,8.3,11,15,0,l
491.896353,74,1,7.3,6.88237,8.009683,10,33,486,m
77.306166,82,3,7.3,6.3,7.2,7,46,0,s
211.059638,81,1,8.1,7.1,8.1,8.530885,18,23,m
438.691162,85,1,9.1,7.2,8.3,8.530885,29,7,m
1740.535685,60,1,9.1,7,8.8,8.530885,30,9,l
3488.858345,80,3,8.6,6.88237,7.3,6,15,26,l
5.750613,82,6,8.30368,6.88237,8.009683,8,26.742663,53,m
69.763253,83,3,7.5,6.88237,8.009683,9,20,10,s
5.568021,83,3,7.5,6.88237,8.009683,9,20,8,s
97.461251,85,1,9.1,7.2,8.3,8.530885,29,10,l
744.21176,50,3,7,6.88237,7.2,11,40,25,s
62.229012,85,1,7.9,6.88237,7.9,8.530885,35,133,m
213.900472,88,1,7.6,6.3,7.6,6,31,8,s
17078.95412,85,1,9.5,6.88237,8.5,12,33,85,s
122.306208,85,1,7.8,6.8,7.7,8,24,0,m
18.875796,82,1,7.1,6.4,7.1,8.530885,25,16,l
18436.05147,84,1,8.8,7.2,8.5,9,22,0,s
3440.791453,80,1,7.8,7.9,7.5,5,50,0,s
162.669646,85,1,9.1,7.2,8.3,8.530885,29,8,l
167.35153,81,1,8.1,7.1,8.1,8.530885,18,11,l
6869.439167,88,1,8,6.7,7.9,8,39,0,s
206.394114,81,1,8.1,7.1,8.1,8.530885,18,20,m
58.634604,83,3,7.5,6.88237,8.009683,9,20,0,m
14106.83948,88,1,9.1,7,8.8,8.530885,30,0,s
109.866305,85,1,9.1,7.2,8.3,8.530885,29,13,m
183.05265,89,1,8.3,6.88237,8.009683,9,22,11,s
49.214605,82,1,8.1,6.8,7.9,8.530885,24,16,l
262.869732,60,1,9.1,7,8.8,8.530885,30,6,m
12.483116,50,1,6.6,6.88237,8.009683,7,7,9,m
87.718337,85,1,9.1,7.2,8.3,8.530885,29,9,l
128.464775,85,1,9.1,7.2,8.3,8.530885,29,7,m
299.233857,85,1,9.1,7.2,8.3,8.530885,29,6,l
5334.635195,88,1,8.8,7,8,8,35,0,s
5940.588961,80,1,9.1,7.2,8.3,8.530885,29,12,m
104.714047,85,1,9.1,7.2,8.3,8.530885,29,6,l
96.419247,85,1,9.1,7.2,8.3,8.530885,29,6,m
6484.091538,88,1,9,6.88237,8.5,7,22,7,s
181.36672,89,1,8.3,6.88237,8.009683,9,22,14,s
10813.11826,88,3,8.2,6.5,8.1,9,33,0,s
1569.900335,85,1,8.8,7,8,8,35,0,s
477.564587,85,1,7.3,6.4,7.3,8.530885,32,5,s
151.814981,86,1,9,6.88237,8.5,7,22,357,l
7305.264482,73,1,8.6,8,8.6,11,33,19,s
13303.45816,89,1,9.1,7.2,8.3,8.530885,29,0,m
242.19568,85,1,8.2,6.88237,8.009683,6,7,0,m
4976.677226,80,1,9,6.88237,8.5,7,22,0,s
1508.254409,73,1,8.5,6.88237,8.009683,11,26.742663,67,m
124.053353,85,1,7.5,6.88237,8.009683,5,40,0,s
4818.852326,87,1,8.3,6.5,7.8,8.530885,10,5,s
117.468601,85,1,9.1,7.2,8.3,8.530885,29,7,l
590.756313,60,1,9.1,7,8.8,8.530885,30,0,m
79.213513,82,1,7.3,6.88237,7.3,8.530885,33,62,s
2583.747054,85,1,9,6.88237,8.5,7,22,46,s
16333.79868,85,1,8.3,6.88237,8.3,11,40,7,m
204.111109,81,1,8.1,7.1,8.1,8.530885,18,0,s
4544.651212,80,1,8.1,7.7,8.2,8.530885,25,25,s
188.837834,89,1,8.3,6.88237,8.009683,9,22,10,m
379.867224,82,1,6.9,6.88237,8.009683,7,10,0,s
180.54784,60,1,8.6,7.2,8.4,8.530885,30,57,m
92.646092,89,1,8.2,6.88237,8.009683,8,25,16,m
213.543147,85,1,8.3,6.9,8.1,8.530885,27,7,s
7157.880873,80,1,7.5,6.88237,7.1,8,65,47,s
184.033518,89,1,8.3,6.88237,8.009683,9,22,7,s
92.165937,83,1,7.3,6.88237,7.3,8.530885,26.742663,156,s
146.996255,89,1,8.8,7.2,8.5,9,22,0,l
3806.057197,80,3,8.6,6.88237,7.3,6,15,9,l
4974.185773,80,1,9,6.88237,8.5,7,22,21,m
2725.499726,85,1,8.3,6.88237,8.1,8.530885,15,647,s
17313.07529,85,1,9.5,6.88237,8.5,12,33,134,s
6306.661053,80,1,9.1,7.2,8.3,8.530885,29,3,m
434.074347,85,1,9.1,7.2,8.3,8.530885,29,5,m
4950.313544,88,3,9.2,6.88237,8.4,10,25,2,s
493.56933,88,1,7.3,6.6,7.4,8.530885,24,5,s
3242.376137,88,3,9.2,6.88237,8.4,10,25,0,m
6312.924973,88,1,8.3,6.5,7.8,8.530885,10,0,s
7910.16513,81,1,8.8,7,8,8,35,0,s
81.575514,85,1,8.1,6.88237,8,8.530885,30,4,l
17025.84491,85,1,9.5,6.88237,8.5,12,33,17,m
481.202484,85,1,9.1,7.2,8.3,8.530885,29,7,m
134.054187,85,1,9.1,7.2,8.3,8.530885,29,10,m
5945.648496,80,1,9.1,7.2,8.3,8.530885,29,10,s
3977.941365,80,1,8.2,8.2,8.3,6,25,11,s
1907.183257,85,1,8.3,7.3,8.1,9,14,0,s
3784.035461,88,1,7.9,6.88237,8.009683,6,109,0,s
506.217665,85,1,9.1,7.2,8.3,8.530885,29,0,s
1473.331623,81,1,7.6,6.4,7.3,8.530885,45,0,s
9169.606141,88,1,8,7.2,7.8,7,55,12,s
1633.215906,60,1,9.1,7,8.8,8.530885,30,8,l
40.818709,50,1,7,6.88237,8.009683,8,21,6,s
115.023325,85,1,9.1,7.2,8.3,8.530885,29,23,m
5.840531,85,1,7.4,6.88237,7.4,8.530885,26.742663,51,s
5247.47079,80,1,7.6,7,7.6,8.530885,34,0,s
382.36961,85,1,7.4,6.6,7.4,10,66,8,s
585.637109,87,1,7.8,6.8,7.6,5,15,11,s
865.7028,85,1,9.1,7.2,8.3,8.530885,29,9,s
10640.01878,80,1,9.5,6.88237,8.5,12,33,8,m
0,83,1,8.30368,6.88237,8.009683,8.530885,26.742663,5,s
3563.353932,80,3,8.6,6.88237,7.3,6,15,0,m
6226.033074,80,1,9.1,7.2,8.3,8.530885,29,14,m
7810.413481,88,1,8.1,7.1,8.1,8.530885,18,0,s
9485.881739,88,1,8,6.5,8,8.530885,33,4,s
154.112087,85,1,9.1,7.2,8.3,8.530885,29,8,m
5818.44133,88,1,8.3,6.5,7.8,8.530885,10,4,s
101.731882,85,1,7.2,6.2,6.8,8.530885,37,26,s
608.481451,85,1,7.4,6.6,7.4,10,66,95,s
1781.540762,60,1,9.1,7,8.8,8.530885,30,6,m
184.129694,89,1,8.2,6.88237,8.009683,8,25,11,m
139.616728,83,3,8.2,6.5,8.1,9,33,8,m
2276.614086,81,1,7.5,6.4,7.3,8.530885,33,0,s
99.330165,85,1,7.3,6.6,7.3,8.530885,51,19,s
183.636784,89,1,8.3,6.88237,8.009683,9,22,0,s
133.318399,85,1,9.1,7.2,8.3,8.530885,29,8,m
257.657048,60,1,7.8,5.7,7.2,8.530885,18,0,m
759.565838,86,1,7.8,6.1,7.8,10,33,7,s
3913.624384,80,1,7.3,7.3,7.1,8,10,0,s
124.421771,89,1,7.5,6.88237,7.5,8,30,0,m
95.657539,85,1,9.1,7.2,8.3,8.530885,29,9,m
16710.06281,85,1,9.5,6.88237,8.5,12,33,0,m
5440.485816,84,1,8.8,7,8,8,35,7,s
7221.234275,73,1,8.6,8,8.6,11,33,506,s
208.973507,81,1,8.1,7.1,8.1,8.530885,18,23,m
595.684004,85,1,6.9,6.88237,8.009683,8,9,67,s
85.07502,85,1,8.1,6.88237,8,8.530885,30,125,l
98.173671,85,1,9.1,7.2,8.3,8.530885,29,12,m
7590.971495,81,1,9.5,6.88237,8.5,12,33,13,s
5178.936518,88,1,8.8,7,8,8,35,0,s
79.943291,89,1,8.8,7.2,8.5,9,22,22,l
4948.062701,60,1,7.8,6.5,7.3,8.530885,20,0,s
4403.348678,80,3,9.2,6.88237,8.4,10,25,22,s
811.917867,85,1,9.1,7.2,8.3,8.530885,29,13,s
3244.698432,85,1,7.4,6.3,7.4,6,73,0,s
10483.54104,80,1,8.2,6.88237,8.009683,8,25,0,s
146.927776,81,1,6.3,6.88237,6.3,7,26.742663,23.263212,s
105.090775,85,1,8.1,6.88237,8.3,9,45,3,l
16979.0915,85,1,9.5,6.88237,8.5,12,33,0,m
101.890804,85,1,6.9,6.88237,8.009683,8,9,0,m
8105.360002,88,1,8,6.6,7.3,7,46,0,s
62.173787,89,1,9.5,6.88237,8.5,12,33,111,m
86.347249,82,3,7,5.8,7.1,8.530885,25,23,s
1059.157439,85,1,8.2,6.88237,7.8,9,30,0,s
7.967322,50,1,6.6,6.88237,8.009683,7,7,4,s
262.82455,60,1,9.1,7,8.8,8.530885,30,7,l
88.226904,40,1,5.5,6.88237,5.5,6,33,11,s
93.322437,85,1,9.1,7.2,8.3,8.530885,29,22,s
1762.104218,60,1,9.1,7,8.8,8.530885,30,3,m
281.394409,85,1,9.1,7.2,8.3,8.530885,29,12,l
482.008453,85,1,7.9,6.88237,7.9,8.530885,35,46,s
7.15088,85,3,7.5,6.9,7.2,9,10,14,l
94.232493,85,1,9.1,7.2,8.3,8.530885,29,5,l
355.96851,86,1,9,6.88237,8.5,7,22,7,l
13134.80712,89,1,9.1,7.2,8.3,8.530885,29,12,m
183.801081,89,1,8.3,6.88237,8.009683,9,22,8,s
2657.723689,60,1,8.4,6.9,8.5,8.530885,34,7,s
1692.283422,89,1,8.3,6.88237,8.3,11,40,32,s
50.839598,85,3,7.5,6.9,7.2,9,10,5,m
292.103473,85,1,9.1,7.2,8.3,8.530885,29,10,l
5911.476412,85,1,7.7,6.4,7.9,8.530885,33,21,s
498.206879,85,1,9.1,7.2,8.3,8.530885,29,8,m
349.773763,85,1,8.2,6.88237,8.009683,6,7,0,s
109.17037,85,1,7.4,6.88237,7.4,8.530885,26.742663,11,l
5611.578687,80,1,8.4,6.88237,8.5,8.530885,15,0,s
128.664684,85,1,9.1,7.2,8.3,8.530885,29,7,m
389.722974,85,1,7.8,6.8,7.7,8,24,10,s
7831.533716,88,1,8.1,7.1,8.1,8.530885,18,0,s
5987.436867,80,1,9.1,7.2,8.3,8.530885,29,6,m
194.413626,85,1,9.1,7.2,8.3,8.530885,29,5,l
26.599474,82,1,8.1,6.8,7.9,8.530885,24,0,s
661.405169,81,1,7.6,7.2,7.6,8.530885,28,23.263212,s
24.693894,89,1,8.2,6.88237,8.2,11,26.742663,32,m
222.339869,60,1,7.7,6.1,7.2,8.530885,20,8,m
201.755456,89,1,8.1,6.4,7.7,9,23,36,m
13957.44793,87,1,8.3,6.88237,8.009683,9,22,34,s
256.276434,60,1,9.1,7,8.8,8.530885,30,8,l
132.64195,85,1,9.1,7.2,8.3,8.530885,29,7,l
16971.71006,85,1,9.5,6.88237,8.5,12,33,0,s
3581.533075,80,3,8.6,6.88237,7.3,6,15,0,l
264.035578,85,1,8.4,6.88237,8.5,8.530885,15,0,m
92.345639,85,1,9.1,7.2,8.3,8.530885,29,12,l
1833.619079,88,1,7.7,6.5,7.5,8.530885,14,0,s
180.594856,85,1,9.1,7.2,8.3,8.530885,29,8,l
130.201157,60,1,7.8,6.5,7.3,8.530885,20,7,s
4590.988999,87,1,9.1,7.2,8.3,8.530885,29,0,s
6428.521896,85,1,7.7,6.5,7.5,8.530885,14,0,s
1188.004635,88,3,9.2,6.88237,8.4,10,25,0,m
0,85,1,6.1,6.88237,6.1,8.530885,26.742663,124,s
391.338542,89,1,8.8,7.2,8.5,9,22,13,m
7272.620172,88,1,8.3,6.5,7.8,8.530885,10,0,s
308.175488,85,1,9.1,7.2,8.3,8.530885,29,8,l
203.127448,85,1,9.1,7.2,8.3,8.530885,29,18,l
47.787666,85,1,7.5,6.88237,8.009683,5,40,58,m
16690.49502,86,1,9.5,6.88237,8.5,12,33,27,m
13334.03849,81,1,8.4,6.7,8.2,8,33,0,s
259.872377,60,1,9.1,7,8.8,8.530885,30,7,l
116.278764,85,1,9.1,7.2,8.3,8.530885,29,8,m
16866.93993,85,1,8.3,6.88237,8.009683,9,22,7,s
182.596154,89,1,8.3,6.88237,8.009683,9,22,0,m
4374.916361,60,1,9.1,7,8.8,8.530885,30,0,m
4668.624511,80,1,8.1,7.7,8.2,8.530885,25,0,s
27.588831,74,3,7.1,6.88237,8.009683,9,15,78,m
96.625072,85,1,9.1,7.2,8.3,8.530885,29,12,l
13669.51744,89,1,8,6.4,7.7,6,19,0,s
135.832397,85,1,9.1,7.2,8.3,8.530885,29,20,l
191.143877,85,1,9.1,7.2,8.3,8.530885,29,8,l
4194.651672,77,1,8.1,6.88237,8.009683,8.530885,48,0,s
121.331625,85,1,9.1,7.2,8.3,8.530885,29,8,s
2073.843949,80,1,7.5,6.5,7.5,4,11,6,s
144.82077,89,1,8.2,6.88237,8.009683,8,25,0,m
116.70659,88,1,7.6,5.4,7.7,8.530885,30,6,l
2005.177108,60,1,9.1,7,8.8,8.530885,30,5,m
96.262383,85,1,9.1,7.2,8.3,8.530885,29,8,l
178.793846,89,1,8.3,6.88237,8.009683,9,22,7,m
128.805067,50,3,7.7,6.88237,7.8,9,20,7,s
411.861479,85,1,7.7,6.8,7.7,8,44,11,s
4202.46085,84,1,8.8,7,8,8,35,0,s
78.10032,74,1,8.3,6.88237,8.009683,9,33,0,s
124.228581,89,1,8.4,6.7,8.2,8,33,0,l
13183.95011,89,1,9.1,7.2,8.3,8.530885,29,0,s
15172.7958,85,1,7.9,6.88237,7.8,10,43,7,s
21.266207,82,1,7.1,6.4,7.1,8.530885,25,0,m
8164.965533,88,1,8.1,6.88237,8.3,9,45,0,s
334.676037,85,1,9.1,7.2,8.3,8.530885,29,6,m
17077.09565,85,1,9.5,6.88237,8.5,12,33,0,s
89.635393,83,3,8.2,6.5,8.1,9,33,0,m
367.66777,85,1,7.1,6.3,7.1,9,9,19,s
211.128682,81,1,8.1,7.1,8.1,8.530885,18,18,m
6039.771465,80,1,8.1,6.88237,8.009683,9,19,6,s
430.414607,85,1,9.1,7.2,8.3,8.530885,29,5,m
98.875665,85,1,8.3,6.9,8.1,8.530885,27,6,m
926.205462,87,1,8.2,6.88237,8,10,60,0,s
154.667099,85,1,8.3,6.88237,8.1,8.530885,15,27,s
60.165199,86,1,6.2,5.3,6.2,8.530885,5,17,s
10670.11714,81,1,9.5,6.88237,8.5,12,33,9,s
845.002311,85,1,9.1,7.2,8.3,8.530885,29,8,s
206.388254,81,1,8.1,7.1,8.1,8.530885,18,31,m
78.075763,85,1,7.7,6.6,7.6,8,17,80,m
3959.094922,85,1,8.7,7.7,7.8,6,30,7,s
16963.36366,85,1,9.5,6.88237,8.5,12,33,0,m
97.223246,85,1,7,6.88237,7,8.530885,26.742663,0,s
10671.55857,80,1,8.2,6.88237,8.009683,8,25,0,s
131.539369,89,1,8.8,7.2,8.5,9,22,8,l
141.603642,89,1,8.3,6.88237,8.009683,9,22,7,s
188.847019,89,1,8.3,6.88237,8.009683,9,22,10,m
288.598769,89,1,8.4,6.7,8.2,8,33,24,m
440.434875,85,1,9.1,7.2,8.3,8.530885,29,4,s
426.835603,85,1,9.1,7.2,8.3,8.530885,29,0,m
431.945042,85,1,9.1,7.2,8.3,8.530885,29,7,m
1308.96847,85,1,9.1,7.2,8.3,8.530885,29,0,s
452.967748,85,1,7.4,6.88237,7.4,8.530885,60,8,s
121.469754,85,1,9.1,7.2,8.3,8.530885,29,9,m
88.383934,85,1,9.1,7.2,8.3,8.530885,29,23,l
1718.290487,60,1,9.1,7,8.8,8.530885,30,9,l
10989.46909,81,1,8.2,6.88237,8.009683,9,47,0,s
4688.163718,60,1,9.1,7,8.8,8.530885,30,13,l
2301.362966,85,1,8.8,7,8,8,35,0,s
179.603316,81,1,8.1,7.1,8.1,8.530885,18,0,m
17635.59333,85,1,9.5,6.88237,8.5,12,33,7,m
4814.559788,88,1,7.9,6.6,7.6,6,33,33,s
337.093925,87,1,7.8,6.2,7.2,8.530885,33,8,s
2739.585299,85,1,9,6.88237,8.5,7,22,8,s
63.425916,81,3,4.9,4.9,8.009683,8.530885,33,20,s
5820.524705,88,1,8.3,6.5,7.8,8.530885,10,0,s
17023.27264,85,1,9.5,6.88237,8.5,12,33,8,s
16988.48605,85,1,9.5,6.88237,8.5,12,33,65,l
1835.748527,85,1,9,6.88237,8.5,7,22,0,s
82.026046,89,1,8.4,6.7,8.2,8,33,13,l
5829.768426,80,1,7.8,6.6,8.1,8.530885,29,0,s
6413.568432,80,1,8.1,6.88237,8.009683,9,19,0,s
255.33219,60,1,9.1,7,8.8,8.530885,30,11,l
87.713531,85,1,7.7,6.8,7.7,8,44,0,s
105.539991,85,1,7.2,6.2,6.8,8.530885,37,177,s
6757.290631,81,1,8.8,7.2,8.5,9,22,0,s
207.640729,85,1,9.1,7.2,8.3,8.530885,29,7,m
3328.242389,85,1,7.4,6.3,7.4,6,73,21,s
112.068542,60,1,6.7,6.5,6.7,8.530885,20,0,s
1053.142427,84,1,7.7,6.6,7.6,8,17,7,m
128.26247,85,1,9.1,7.2,8.3,8.530885,29,7,l
119.973207,85,1,9.1,7.2,8.3,8.530885,29,6,l
13234.91001,89,1,9.1,7.2,8.3,8.530885,29,0,m
5432.771065,80,1,8.3,7.3,8.1,9,14,0,s
7940.836043,88,1,9.1,7.2,8.3,8.530885,29,0,s
36.249298,60,3,7.8,6.5,7.5,11,28,7,m
2476.281849,60,1,9.1,7,8.8,8.530885,30,4,m
1648.288875,60,1,9.1,7,8.8,8.530885,30,0,l
4973.572552,80,1,9,6.88237,8.5,7,22,0,m
166.251154,50,3,7,6.88237,7.2,11,40,12,s
3256.723242,81,1,7.9,6.4,7.4,8,24,5,s
3013.38929,88,3,9.2,6.88237,8.4,10,25,46,m
1829.503645,60,1,9.1,7,8.8,8.530885,30,8,m
7003.348574,85,1,7.5,6.4,7.3,8.530885,33,0,s
481.149617,85,1,8.3,6.88237,8.1,8.530885,15,31,m
17676.87579,85,1,8.3,6.88237,8.009683,9,22,166,s
6.73384,83,3,7.5,6.88237,8.009683,9,20,8,m
304.941499,85,1,9.1,7.2,8.3,8.530885,29,8,l
56.868805,83,3,7.5,6.88237,8.009683,9,20,9,m
181.321718,89,1,8.3,6.88237,8.009683,9,22,15,s
9182.649724,88,1,8.8,7,8,8,35,8,s
192.059046,81,1,8.1,7.1,8.1,8.530885,18,13,m
371.967668,85,1,7.8,6.8,7.7,8,24,0,s
204.618932,85,1,7.6,6.88237,8.009683,8.530885,26.742663,69,s
251.640448,89,1,8.8,7.2,8.5,9,22,7,l
260.571864,60,1,9.1,7,8.8,8.530885,30,7,l
16142.45861,89,1,9.1,7,8.8,8.530885,30,0,s
539.668078,80,4,6.9,6.88237,8.009683,7,6,0,s
485.729293,85,1,9.1,7.2,8.3,8.530885,29,5,m
498.345515,85,1,9.1,7.2,8.3,8.530885,29,5,m
1374.973676,82,1,7.8,6.88237,8.009683,8,40,0,s
2025.502515,60,1,9.1,7,8.8,8.530885,30,9,m
263.964926,60,1,9.1,7,8.8,8.530885,30,8,l
69.703824,83,3,7.5,6.88237,8.009683,9,20,12,s
122.488309,85,1,8.1,6.88237,8,8.530885,30,29,m
15573.78277,89,1,8.8,7,8,8,35,0,s
6232.75737,80,1,9.1,7.2,8.3,8.530885,29,9,m
15787.11853,86,1,9.5,6.88237,8.5,12,33,13,m
183.018164,89,1,8.3,6.88237,8.009683,9,22,11,s
741.872061,85,1,9.1,7.2,8.3,8.530885,29,9,s
27.76455,85,1,7.9,6.88237,7.9,8.530885,35,84,l
55.797765,85,1,7.7,6.5,7.7,8,48,3,m
4556.024205,60,1,9.1,7,8.8,8.530885,30,15,m
12055.77372,89,1,8.8,7,8,8,35,8,s
193.673894,82,1,7.5,6.88237,8.009683,8.530885,10,9,m
57.428247,82,3,7,5.8,7.1,8.530885,25,9,l
8831.391008,81,1,8.8,7,8,8,35,0,m
2571.080028,86,1,8.7,7.7,7.8,6,30,27,s
508.770305,85,1,8.3,6.88237,8.1,8.530885,15,498,m
304.512665,60,1,9.1,7,8.8,8.530885,30,0,m
194.290558,86,1,6.8,6.2,7,8.530885,33,0,s
457.857761,81,1,7.3,6.7,7.3,8.530885,16,0,s
1065.827752,85,1,5.7,5.4,5.1,8.530885,33,4,s
16902.11997,85,1,9.5,6.88237,8.5,12,33,118,s
264.272098,60,1,9.1,7,8.8,8.530885,30,0,m
181.797088,89,1,8.8,7.2,8.5,9,22,0,l
96.861195,85,1,9.1,7.2,8.3,8.530885,29,6,m
87.535231,85,1,9.1,7.2,8.3,8.530885,29,7,m
469.055406,85,1,8.1,6.88237,8.3,9,45,0,s
617.791969,85,1,7.4,6.3,7.2,10,56,95,s
3516.73679,80,3,8.6,6.88237,7.3,6,15,16,m
102.442189,86,1,8.3,7.3,8.1,9,14,11,m
3081.596715,88,3,9.2,6.88237,8.4,10,25,9,m
6434.105991,60,1,9.1,7,8.8,8.530885,30,0,m
10722.36342,81,1,9,6.88237,8.5,7,22,0,s
6047.074904,60,1,9.1,7,8.8,8.530885,30,5,m
94.397916,85,1,9.1,7.2,8.3,8.530885,29,8,l
104.24741,85,1,6.9,6.7,6.9,8.530885,10,0,s
2221.898762,85,1,9,6.88237,8.5,7,22,5,s
533.082884,85,1,8.2,6.88237,8.3,8.530885,33,0,s
13951.88766,89,1,8.3,6.5,7.8,8.530885,10,0,s
2492.819675,60,1,9.1,7,8.8,8.530885,30,0,m
6059.716828,85,1,7.7,6.4,7.9,8.530885,33,72,s
149.094446,85,1,8.2,6.88237,8.009683,6,7,0,l
1616.705534,60,1,9.1,7,8.8,8.530885,30,14,l
4533.891235,83,1,9.1,7.2,8.3,8.530885,29,6,s
2712.167598,88,3,8.6,6.88237,7.3,6,15,0,s
181.374762,89,1,8.3,6.88237,8.009683,9,22,14,s
357.012108,85,1,7.8,6.8,7.7,8,24,10,s
7417.703757,60,1,8.1,6.88237,8.009683,8.530885,48,0,s
65.450413,82,1,7.6,6.5,7.8,8.530885,13,3,s
17423.29874,85,1,9.5,6.88237,8.5,12,33,56,s
6966.758457,81,1,7.7,6.5,7.5,8.530885,14,0,s
43.627385,60,1,7.8,6.5,7.3,8.530885,20,9,m
90.110703,85,1,9.1,7.2,8.3,8.530885,29,14,l
137.14913,85,1,9.1,7.2,8.3,8.530885,29,8,m
205.4272,85,1,9.1,7.2,8.3,8.530885,29,20,l
323.598106,85,1,9.1,7.2,8.3,8.530885,29,9,l
168.22643,81,1,8.1,7.1,8.1,8.530885,18,10,m
5097.940997,80,1,7.7,6.88237,7.3,10,51,0,s
11187.82372,80,1,9.5,6.88237,8.5,12,33,7,m
181.259975,89,1,8.3,6.88237,8.009683,9,22,15,m
25.625813,80,3,7.7,6,7.2,9,2,0,m
2167.890148,88,3,9.2,6.88237,8.4,10,25,14,s
10799.40938,80,1,9.5,6.88237,8.5,12,33,21,m
5586.379089,80,1,8.4,6.88237,8.5,8.530885,15,0,s
6275.434472,80,1,9.1,7.2,8.3,8.530885,29,13,m
13302.23517,89,1,9.1,7.2,8.3,8.530885,29,0,m
106.182006,85,1,7.5,6.88237,8.009683,5,40,8,s
67.26785,60,1,7.8,6.5,7.3,8.530885,20,7,s
4532.770304,83,1,9.1,7.2,8.3,8.530885,29,0,s
202.468899,85,1,6.9,6.88237,8.009683,8.530885,10,20,s
275.90294,74,1,8.1,6.88237,8.1,9,26.742663,45,m
4039.925934,88,3,7.7,6,7.2,9,2,12,s
114.366709,85,1,9.1,7.2,8.3,8.530885,29,9,l
171.730036,85,1,7.5,6.88237,7.5,9,10,82,m
6926.258591,80,1,8.3,6.88237,8.1,8.530885,15,11,s
853.593035,85,1,9.1,7.2,8.3,8.530885,29,7,m
6169.821983,80,1,8.3,6.88237,7.6,8.530885,26.742663,25,m
625.380273,60,1,9.1,7,8.8,8.530885,30,10,l
9074.760872,81,1,9.5,6.88237,8.5,12,33,23.263212,s
152.869447,85,1,9.1,7.2,8.3,8.530885,29,10,l
172.40125,40,3,7.3,6.4,7.7,7,19,-12,s
31.087098,50,1,7,6.88237,8.009683,8,21,7,s
3000.025206,85,1,8.8,7,8,8,35,8,s
17018.58037,85,1,9.5,6.88237,8.5,12,33,26,s
1809.375962,60,1,9.1,7,8.8,8.530885,30,9,m
97.592132,85,1,9.1,7.2,8.3,8.530885,29,5,m
2002.912983,85,1,8.8,7,8,8,35,0,s
40.059105,85,1,6.3,6.3,6.2,8.530885,11,4,s
9407.476039,81,1,9.1,7.2,8.3,8.530885,29,7,s
7391.386489,81,1,8.8,7.2,8.5,9,22,26,s
10646.3993,81,1,8.2,6.88237,8.009683,8,25,2,s
963.283432,85,1,7.1,6.3,7.1,8,50,0,s
3572.349667,85,1,8.7,7.7,7.8,6,30,0,s
10504.21468,81,1,8.5,6.88237,8.5,11,25,0,m
183.589702,89,1,8.3,6.88237,8.009683,9,22,8,m
408.794883,85,1,8.1,6.88237,8.3,9,45,0,s
17186.91977,85,1,8,6.6,7.3,7,46,67,s
4626.274951,85,1,7.9,6.3,7.9,6,48,0,s
107.764817,60,3,7.8,6.5,7.5,11,28,30,l
5107.622205,60,1,8.2,6.88237,7.8,8.530885,50,15,m
115.533149,85,1,9.1,7.2,8.3,8.530885,29,25,l
5318.046694,88,1,8.3,6.88237,8.3,11,40,85,s
72.589414,82,1,8.1,6.8,7.9,8.530885,24,26,m
46.130532,82,1,8.1,6.8,7.9,8.530885,24,20,l
87.871878,85,1,9.1,7.2,8.3,8.530885,29,6,m
2821.772748,85,1,7.4,6.3,7.4,6,73,0,s
2294.17396,81,1,8.1,6.88237,8.009683,9,19,0,s
90.904254,85,1,8.1,6.88237,8.3,9,45,0,m
9852.03618,80,1,8.4,6.7,8.2,8,33,0,s
12800.73277,87,1,8.8,7.2,8.5,9,22,9,s
8638.475871,80,1,8.8,8.2,8.6,9,20,0,s
133.885351,85,1,9.1,7.2,8.3,8.530885,29,8,m
31.079124,50,1,7,6.88237,8.009683,8,21,6,s
8228.56465,88,1,9.1,7.2,8.3,8.530885,29,17,s
9549.500778,81,1,9.1,7,8.8,8.530885,30,12,s
419.474115,89,1,8.8,7.2,8.5,9,22,0,s
261.15986,85,1,6.7,6.88237,8.009683,8.530885,10,0,s
14.608578,85,3,7.5,6.9,7.2,9,10,6,m
227.501847,85,1,9.1,7.2,8.3,8.530885,29,9,m
163.062586,85,1,8.1,6.88237,8,8.530885,30,5,s
9.452609,84,1,6.7,6.3,6.6,8,11,0,m
81.777179,85,1,7,6.88237,7,8.530885,26.742663,13,m
3730.098675,85,3,8.2,6.5,8.1,9,33,91,s
724.392141,85,1,6.9,6.6,6.9,8.530885,48,0,s
10639.02249,80,1,9.5,6.88237,8.5,12,33,18,l
106.989056,85,1,9.1,7.2,8.3,8.530885,29,9,s
16713.45499,85,1,9.5,6.88237,8.5,12,33,39,m
4497.012646,80,3,9.2,6.88237,8.4,10,25,0,m
65.04724,83,3,7.5,6.88237,8.009683,9,20,0,l
3497.64256,80,3,8.6,6.88237,7.3,6,15,9,l
79.231286,60,1,8.6,7.2,8.4,8.530885,30,18,m
17773.65965,85,1,9.5,6.88237,8.5,12,33,6,s
8908.25806,81,1,8.3,6.88237,7.6,8.530885,26.742663,85,m
846.390838,85,1,9.1,7.2,8.3,8.530885,29,10,s
266.074415,85,1,9.1,7.2,8.3,8.530885,29,6,l
9362.094869,88,1,8.3,6.88237,8.009683,9,22,0,s
622.349455,85,1,9.1,7.2,8.3,8.530885,29,3,m
145.78096,82,1,7.5,6.4,7.3,8.530885,33,13,m
88.918829,85,1,8.3,6.9,8.1,8.530885,27,7,m
713.964961,85,1,7.8,6.8,7.7,8,24,9,s
320.454083,60,1,7.8,5.7,7.2,8.530885,18,13,l
617.749288,85,1,7.8,6.8,7.7,8,24,135,s
1009.932382,82,1,7.8,6.88237,8.1,8.530885,35,0,s
116.058729,85,1,9.1,7.2,8.3,8.530885,29,8,m
1503.488928,81,1,7.7,6.88237,8.009683,7,10,0,s
258.905555,60,1,9.1,7,8.8,8.530885,30,9,l
345.84035,85,1,7.3,6.4,7.3,8.530885,32,0,s
246.81706,85,1,9.1,7.2,8.3,8.530885,29,8,l
10663.61941,80,1,8.3,6.88237,8.009683,9,22,0,s
51.176494,85,1,7.5,6.88237,8.009683,5,40,11,m
476.470838,85,1,6.9,6.6,6.9,8.530885,48,69,s
350.453941,85,1,8.4,6.88237,8.5,8.530885,15,0,s
81.511065,85,1,8.1,6.88237,8,8.530885,30,158,l
2725.499726,85,1,7.5,6.88237,8.009683,5,40,647,s
2725.499726,60,1,7.7,6.6,7.6,6,10,647,s
241.133798,60,1,7.8,5.7,7.2,8.530885,18,9,l
1229.086136,82,1,7.9,6.4,7.4,8,24,0,s
69.669383,83,3,7.5,6.88237,8.009683,9,20,8,s
203.33971,81,1,8.1,7.1,8.1,8.530885,18,5,m
98.611178,85,1,9.1,7.2,8.3,8.530885,29,7,l
48.993126,60,1,7.8,6.5,7.3,8.530885,20,3,l
3528.059484,85,1,7.6,6.88237,7.6,8.530885,25,147,s
4530.843492,83,1,9.1,7.2,8.3,8.530885,29,0,s
1868.248212,88,1,7.9,6.88237,8.009683,4,14,0,s
9004.68248,81,1,9.5,6.88237,8.5,12,33,3,s
9347.222577,88,1,9.5,6.88237,8.5,12,33,7,s
1814.917512,60,1,9.1,7,8.8,8.530885,30,8,m
659.826718,87,3,9.2,6.88237,8.4,10,25,5,s
13882.03826,88,1,8.1,6.88237,8.009683,8.530885,48,0,s
17072.97864,85,1,9.5,6.88237,8.5,12,33,0,m
15.016956,85,1,7.7,6.5,7.7,8,48,0,m
97.122894,85,1,9.1,7.2,8.3,8.530885,29,6,m
34.435531,89,1,8.8,7.2,8.5,9,22,11,l
354.550555,85,1,9.1,7.2,8.3,8.530885,29,7,m
5309.789146,80,1,9,6.88237,8.5,7,22,0,m
480.138407,85,1,9.1,7.2,8.3,8.530885,29,0,m
133.696216,85,1,9.1,7.2,8.3,8.530885,29,9,l
644.191088,85,1,7,5.8,7,8.530885,15,10,s
11.67888,85,3,7.5,6.9,7.2,9,10,5,m
10802.10876,81,1,9.5,6.88237,8.5,12,33,6,s
57.976024,85,3,7.5,6.9,7.2,9,10,14,m
993.093703,60,1,9.1,7,8.8,8.530885,30,10,m
2558.113363,60,1,9.1,7,8.8,8.530885,30,0,m
9621.259622,88,1,8.8,7.2,8.5,9,22,0,s
532.515936,74,1,7.5,6.88237,8.009683,8,19,0,s
587.449539,85,0,8.30368,4.9,8.009683,8.530885,10,292,s
257.99194,85,1,7.5,6.88237,8.009683,5,40,13,s
3931.895275,85,3,8.2,6.5,8.1,9,33,0,s
119.670094,85,1,9.1,7.2,8.3,8.530885,29,9,m
2508.208367,60,1,9.1,7,8.8,8.530885,30,14,m
268.204925,85,1,7.5,6.88237,7.5,8.530885,20,4,s
2233.330094,89,1,8,6.7,7.9,8,39,0,s
10956.39468,88,3,8.2,6.5,8.1,9,33,0,s
59.161958,85,1,6.7,6.88237,6.7,8.530885,50,0,s
4245.924589,60,1,8.6,7.4,8.5,8.530885,20,0,s
53.10457,60,1,7.5,6.5,7.3,8.530885,10,0,m
3763.223794,80,1,8.6,6.88237,9.1,8.530885,33,0,m
127.812717,85,1,9.1,7.2,8.3,8.530885,29,7,l
98.681733,89,1,8.8,7.2,8.5,9,22,13,l
190.161572,85,1,9.1,7.2,8.3,8.530885,29,10,l
26.769509,89,1,8.8,7.2,8.5,9,22,19,m
97.939512,60,3,7.8,6.5,7.5,11,28,10,s
733.841849,60,1,9.1,7,8.8,8.530885,30,8,l
22.313638,88,3,7,6.9,7,8,26.742663,82,s
50.300669,83,3,7.5,6.88237,8.009683,9,20,17,m
3597.715169,80,3,8.6,6.88237,7.3,6,15,0,l
279.157808,85,1,9.1,7.2,8.3,8.530885,29,8,l
32.683075,85,1,6.7,6.3,6.6,8.530885,22,7,s
203.297846,85,1,9.1,7.2,8.3,8.530885,29,4,l
132.927695,85,1,9.1,7.2,8.3,8.530885,29,7,l
181.438158,89,1,8.3,6.88237,8.009683,9,22,21,s
16969.12005,85,1,9.5,6.88237,8.5,12,33,0,m
3805.412492,80,3,8.6,6.88237,7.3,6,15,0,l
4401.953241,85,1,7.4,6.3,7.4,6,73,6,s
314.477751,87,3,9.2,6.88237,8.4,10,25,174,l
366.021187,85,0,8.30368,4.9,8.009683,8.530885,10,0,s
17382.98797,85,1,8.2,7.6,7.9,8.530885,35,11,s
243.021141,89,1,8.3,6.88237,8.009683,9,22,5,m
293.644326,85,1,7.9,6.88237,7.9,8.530885,35,137,m
447.898383,85,1,5.7,5.4,5.1,8.530885,33,67,s
14916.73687,71,1,9.1,7,8.8,8.530885,30,0,s
187.659287,88,1,7.6,5.4,7.7,8.530885,30,7,l
1267.02342,81,1,7.7,6.88237,8.009683,7,10,8,s
373.097336,85,1,8.2,6.88237,7.8,9,30,0,s
5931.018378,80,1,9.1,7.2,8.3,8.530885,29,0,m
4446.075758,85,3,8.2,6.5,8.1,9,33,0,s
4271.033936,88,1,8.8,7,8,8,35,72,s
116.340843,85,1,9.1,7.2,8.3,8.530885,29,10,l
8598.826549,88,1,9.1,7.2,8.3,8.530885,29,9,s
3515.037624,80,3,8.6,6.88237,7.3,6,15,67,m
467.166058,87,1,7.3,6.9,8.009683,8.530885,52,0,s
3120.866041,81,1,8.1,6.88237,8.009683,9,19,5,s
3601.242858,80,3,8.6,6.88237,7.3,6,15,3,s
2549.829042,81,1,7.8,7.1,8,9,59,0,s
3584.572486,80,3,8.6,6.88237,7.3,6,15,15,m
792.189356,85,1,9.1,7.2,8.3,8.530885,29,6,s
524.419778,60,1,9.1,7,8.8,8.530885,30,0,m
939.239128,84,1,7.8,6.8,7.7,8,24,7,s
1944.424717,89,1,8.2,6.88237,8.009683,8,25,0,s
16982.29266,85,1,9.5,6.88237,8.5,12,33,48,m
89.760988,85,1,9.1,7.2,8.3,8.530885,29,9,l
285.808807,85,1,9.1,7.2,8.3,8.530885,29,13,l
132.318826,89,1,8.8,7.2,8.5,9,22,8,l
181.385243,89,1,8.3,6.88237,8.009683,9,22,10,s
156.193245,86,1,8.3,6.88237,8.009683,10,40,0,m
2869.072445,60,1,9.1,7,8.8,8.530885,30,0,m
2040.875507,81,3,7.5,6.88237,7.5,8.530885,26.742663,0,s
139.439832,85,1,8.3,6.9,8.1,8.530885,27,5,s
3933.689504,88,3,7.7,6,7.2,9,2,6,m
179.509086,85,1,9.1,7.2,8.3,8.530885,29,7,l
6221.709422,80,1,9.1,7.2,8.3,8.530885,29,14,m
185.620134,85,1,8.1,6.88237,8,8.530885,30,0,m
13302.22238,89,1,9.1,7.2,8.3,8.530885,29,8,s
10798.25953,80,1,9.5,6.88237,8.5,12,33,26,m
96.616814,85,1,9.1,7.2,8.3,8.530885,29,12,l
55.125973,89,1,8.8,7.2,8.5,9,22,32,l
120.239435,85,1,7.7,6.8,7.7,8,44,10,s
821.428566,87,3,9.2,6.88237,8.4,10,25,0,s
3321.42752,80,1,8.1,6.88237,8.3,9,45,6,s
1636.398132,88,1,7.9,6.88237,8.009683,4,14,23.263212,s
363.80994,85,1,8.3,7.3,8.1,9,14,0,s
313.454105,85,1,6.4,6.88237,8.009683,8.530885,11,0,s
131.667118,60,1,8.6,7.2,8.4,8.530885,30,16,m
270.624616,85,1,8.3,6.88237,8.1,8.530885,15,0,m
1046.329208,85,1,8.2,6.88237,8.009683,6,7,0,s
3598.673923,80,3,8.6,6.88237,7.3,6,15,0,l
95.357675,85,1,9.1,7.2,8.3,8.530885,29,10,l
1557.696686,87,1,8.2,6.88237,8.009683,8,32,0,s
105.280757,85,1,9.1,7.2,8.3,8.530885,29,10,m
2725.499726,85,1,8.1,6.88237,8,8.530885,30,647,m
105.207163,85,1,9.1,7.2,8.3,8.530885,29,8,m
3488.924688,80,3,8.6,6.88237,7.3,6,15,0,l
263.105878,85,1,9.1,7.2,8.3,8.530885,29,9,l
17285.83014,85,1,9.5,6.88237,8.5,12,33,0,m
10545.95529,81,1,9.5,6.88237,8.5,12,33,0,s
16.006357,85,3,7.5,6.9,7.2,9,10,6,m
1775.223496,60,1,9.1,7,8.8,8.530885,30,7,m
801.695376,60,1,7.8,6.88237,8.009683,5,24,0,s
10642.27729,80,1,9.5,6.88237,8.5,12,33,0,m
583.324887,89,1,8.3,6.88237,8.009683,9,22,0,s
4003.606537,85,3,7,5.8,7.1,8.530885,25,10,s
3551.335558,80,3,8.6,6.88237,7.3,6,15,0,l
258.717027,85,1,7.3,6.4,7.3,8.530885,32,0,s
4668.912458,88,1,7.2,6.88237,7.2,10,20,12,s
425.601498,85,1,8.1,6.88237,8.3,9,45,0,s
226.816078,83,1,7.3,6.88237,7.3,8.530885,26.742663,69,s
178.965693,85,1,7.1,6.88237,8.009683,8.530885,25,0,s
98.029547,86,1,8.3,6.5,7.8,8.530885,10,6,l
3619.511166,80,3,8.6,6.88237,7.3,6,15,0,m
110.801981,85,1,9.1,7.2,8.3,8.530885,29,10,m
4775.756335,88,1,8.2,6.88237,8.009683,8,25,0,s
250.245313,85,1,8.4,6.88237,8.5,8.530885,15,0,l
658.33451,81,1,8.1,7.1,8.1,8.530885,18,5,m
7958.958208,86,1,8.1,7.1,8.1,8.530885,18,7,s
487.498084,85,1,9.1,7.2,8.3,8.530885,29,5,m
224.894831,60,1,7.7,6.1,7.2,8.530885,20,8,m
421.662432,73,1,7.8,6.88237,7.3,7,22,24,s
313.658849,85,1,8.2,6.88237,8.009683,6,7,69,s
795.157142,60,1,9.1,7,8.8,8.530885,30,0,m
50.82393,85,3,7.5,6.9,7.2,9,10,5,m
126.690353,89,1,9.5,6.88237,8.5,12,33,58,m
1794.81538,60,1,9.1,7,8.8,8.530885,30,0,l
18.64336,85,5,6.4,6.88237,6.4,8.530885,26.742663,8,m
1941.57323,87,1,8.8,7,8,8,35,12,s
178.718193,89,1,8.3,6.88237,8.009683,9,22,13,m
198.359074,85,1,6.9,6.88237,6.9,8.530885,30,44,s
4115.08306,84,1,9.1,7.2,8.3,8.530885,29,9,s
159.716016,85,1,8.2,6.88237,8.009683,6,7,0,m
175.213025,85,1,7.5,6.88237,7.5,9,10,0,m
426.131673,85,1,7.4,6.6,7.4,10,66,67,s
98.875665,85,1,8.3,6.9,8.1,8.530885,27,6,m
145.861078,89,1,8.8,7.2,8.5,9,22,0,l
121.844466,85,1,8.1,6.88237,8,8.530885,30,72,m
266.323509,85,1,8.1,6.88237,8.3,9,45,5,m
5008.756095,80,1,9,6.88237,8.5,7,22,8,s
69.763696,83,3,7.5,6.88237,8.009683,9,20,9,l
94.512619,85,1,9.1,7.2,8.3,8.530885,29,16,l
251.491385,85,1,8.2,6.88237,8.009683,6,7,80,s
17070.07294,85,1,9.5,6.88237,8.5,12,33,0,s
1717.34181,89,1,8.3,6.88237,8.3,11,40,20,m
294.676904,85,1,8.2,6.88237,7.8,9,30,15,s
847.083469,85,1,9.1,7.2,8.3,8.530885,29,16,s
2725.499726,82,1,7.7,6.4,7.9,8.530885,33,647,m
253.446663,89,1,8.3,6.88237,8.009683,9,22,13,m
5243.872968,85,3,9.2,6.88237,8.4,10,25,0,s
21.631487,50,1,6.7,5.9,6.7,8,33,80,s
14561.47136,80,1,8.1,6.88237,8.009683,8.530885,48,0,s
916.967864,86,1,7.5,6.88237,8.009683,5,40,9,s
261.920871,60,1,9.1,7,8.8,8.530885,30,7,m
334.045121,85,1,8.1,6.88237,8.1,8.530885,26.742663,0,l
172.453638,85,1,7.5,6.88237,7.5,9,10,30,m
274.154277,85,1,8.4,6.88237,8.5,8.530885,15,0,m
282.034821,60,1,7.7,6.1,7.2,8.530885,20,10,s
6274.624419,80,1,9.1,7.2,8.3,8.530885,29,10,m
5196.714171,60,1,9.1,7,8.8,8.530885,30,5,s
33.887569,60,3,7.8,6.5,7.5,11,28,7,m
3651.996841,80,3,8.6,6.88237,7.3,6,15,0,m
6308.582679,80,1,9.1,7.2,8.3,8.530885,29,13,m
188.94431,89,1,8.3,6.88237,8.009683,9,22,14,m
5107.503041,88,1,8.8,7,8,8,35,0,s
183.004037,85,1,7.5,6.88237,8.009683,5,40,0,m
2240.535831,81,1,8.1,6.8,7.9,8.530885,24,0,s
3659.676591,80,1,8,6.4,7.7,6,19,0,s
31.726688,85,1,8.2,6.88237,8.2,8.530885,26.742663,12,l
7549.587087,81,1,8.3,6.5,7.8,8.530885,10,0,s
1813.313113,60,1,9.1,7,8.8,8.530885,30,5,m
98.526097,85,1,6.7,6.88237,8.009683,5,23,0,s
28.198654,83,1,7.9,6.3,7.6,6,24,14,m
135.563769,85,1,9.1,7.2,8.3,8.530885,29,12,l
17025.2874,85,1,9.5,6.88237,8.5,12,33,0,m
320.530373,50,1,7,6.88237,8.009683,8,21,2,s
74.169614,85,1,7.7,6.6,7.6,8,17,81,l
3771.70164,80,1,8.6,6.88237,9.1,8.530885,33,5,m
123.514505,85,1,8.1,6.88237,8,8.530885,30,0,s
143.950877,89,1,8.8,7.2,8.5,9,22,19,l
85.992882,85,1,8.3,6.9,8.1,8.530885,27,0,m
131.542609,89,1,8.2,6.88237,8.009683,8,25,7,m
2021.815434,60,1,9.1,7,8.8,8.530885,30,19,m
17479.89722,85,1,9.5,6.88237,8.5,12,33,17,s
2725.499726,86,1,7.7,6.6,7.6,8,17,647,m
9041.144253,88,1,8,7.2,7.8,7,55,0,s
3573.750649,85,1,8.7,7.7,7.8,6,30,12,s
16973.94684,85,1,9.5,6.88237,8.5,12,33,19,m
3271.678768,85,1,7.4,6.3,7.4,6,73,8,s
10934.77728,81,1,9.5,6.88237,8.5,12,33,0,s
888.738907,85,1,9.1,7.2,8.3,8.530885,29,7,m
181.605609,89,1,8.3,6.88237,8.009683,9,22,16,m
3567.908229,80,1,8.6,6.88237,9.1,8.530885,33,24,s
489.552802,82,1,7.8,6.88237,8.009683,8,40,14,s
933.561765,86,1,7.5,6.88237,8.009683,5,40,29,s
48.776418,60,1,7.8,6.5,7.3,8.530885,20,6,l
2529.893266,85,1,8.8,7,8,8,35,22,s
706.883878,60,1,9.1,7,8.8,8.530885,30,5,s
1623.422806,60,1,9.1,7,8.8,8.530885,30,7,l
313.658849,85,1,8.2,6.88237,8.009683,6,7,69,s
65.414502,85,1,8.1,6.88237,8.3,9,45,21,m
64.422429,89,1,8,6.7,7.9,8,39,9,l
371.929587,85,1,9.1,7.2,8.3,8.530885,29,0,m
1225.863662,88,1,8.2,6.88237,8.009683,9,47,3,s
45.617772,60,1,7.8,6.5,7.3,8.530885,20,6,m
211.020919,81,1,8.1,7.1,8.1,8.530885,18,17,m
96.860712,85,1,9.1,7.2,8.3,8.530885,29,6,l
118.232918,85,1,7.3,6.4,7.3,8.530885,32,69,s
144.982075,89,1,8.2,6.88237,8.009683,8,25,9,m
208.926674,89,1,8.8,7.2,8.5,9,22,16,l
226.989763,60,1,7.8,5.7,7.2,8.530885,18,8,m
8.72456,85,3,7.5,6.9,7.2,9,10,6,m
7361.990823,81,3,8.6,6.88237,7.3,6,15,0,l
255.670694,60,3,8,7.7,8,10,15,5,m
10655.50668,81,1,8.5,6.88237,8.5,11,25,4,s
136.077016,85,1,9.1,7.2,8.3,8.530885,29,10,l
289.606516,85,1,5.7,6.88237,8.009683,8.530885,10,25,s
120.439239,85,1,9.1,7.2,8.3,8.530885,29,9,m
342.720891,85,1,9.1,7.2,8.3,8.530885,29,6,m
131.300433,85,1,9.1,7.2,8.3,8.530885,29,6,m
2368.922219,89,1,8.5,6.88237,8.5,11,25,9,m
75.175527,82,1,7.9,6.4,7.4,8,24,12,m
383.112807,84,1,7,6.4,7.3,8.530885,10,21,s
6514.01419,81,1,7.5,5.8,6.6,4,10,12,m
185.100217,81,1,8.1,7.1,8.1,8.530885,18,17,m
4998.96107,80,1,9,6.88237,8.5,7,22,0,s
150.225641,89,1,8.3,6.88237,8.009683,9,22,15,m
116.289257,85,1,9.1,7.2,8.3,8.530885,29,4,l
401.385962,85,1,8.2,6.88237,7.8,9,30,19,s
17660.56793,85,1,9.5,6.88237,8.5,12,33,7,s
14968.13078,88,1,8.1,6.88237,8.009683,8.530885,48,23.263212,s
40.941737,85,1,7.7,6.88237,7.7,8.530885,20,84,s
1918.892385,71,1,8.1,6.88237,8.009683,8.530885,48,8,s
1756.824144,60,1,9.1,7,8.8,8.530885,30,8,s
5929.339508,88,1,8.8,7.2,8.5,9,22,23.263212,s
139.564538,89,1,8.3,6.88237,8.009683,9,22,15,m
117.831999,80,4,6.9,6.88237,8.009683,7,6,5,s
3491.824653,80,3,8.6,6.88237,7.3,6,15,0,l
397.533397,85,1,7.5,6.88237,8.009683,5,40,84,s
407.096727,85,1,7.8,6.8,7.7,8,24,0,s
97.494709,85,1,9.1,7.2,8.3,8.530885,29,10,l
108.327248,88,1,7.7,6.5,7.5,8.530885,14,10,l
51.060746,85,3,7.5,6.9,7.2,9,10,9,m
545.482599,60,1,9.1,7,8.8,8.530885,30,8,m
5926.266676,80,1,9.1,7.2,8.3,8.530885,29,19,m
1616.451263,60,1,9.1,7,8.8,8.530885,30,10,m
17340.25858,85,1,9.5,6.88237,8.5,12,33,72,m
181.66332,89,1,8.8,7.2,8.5,9,22,20,l
3596.851419,80,1,7.7,6.88237,7.3,10,51,0,s
8384.718833,88,1,9.1,7.2,8.3,8.530885,29,7,s
60.560022,82,1,8.1,6.8,7.9,8.530885,24,23,m
5723.586016,60,1,7.7,6.1,7.2,8.530885,20,48,s
69.610511,83,3,7.5,6.88237,8.009683,9,20,14,m
7226.526892,88,1,8.3,6.9,8.1,8.530885,27,0,s
19.777621,85,1,6.5,6.88237,6.5,8.530885,26.742663,27,s
2142.191574,89,1,7.5,5.8,6.6,4,10,0,s
79.721604,85,3,7.5,6.9,7.2,9,10,6,m
373.692493,85,1,7.4,6.4,7.4,6,29,6,s
15192.51394,85,1,8.8,8.2,8.6,9,20,0,s
45.465667,82,3,7,5.8,7.1,8.530885,25,0,m
182.749693,82,1,6.6,6.88237,8.009683,3,22,9,s
120.255269,85,1,9.1,7.2,8.3,8.530885,29,8,l
9155.47724,88,1,8.1,6.88237,8,8.530885,30,0,s
4960.524909,80,1,9,6.88237,8.5,7,22,0,m
179.325134,82,1,8.1,6.8,7.9,8.530885,24,30,m
472.944698,85,1,9.1,7.2,8.3,8.530885,29,100,s
323.508422,85,1,7.4,6.6,7.4,10,66,6,s
289.821198,85,1,8.2,6.88237,8.009683,6,7,5,s
129.812935,86,1,8.3,7.3,8.1,9,14,19,m
119.775149,85,1,9.1,7.2,8.3,8.530885,29,8,m
2195.493111,60,1,9.1,7,8.8,8.530885,30,0,m
4913.460321,85,3,8.6,6.88237,7.3,6,15,0,s
165.4775,85,1,7.5,6.88237,7.5,7,30,0,s
37.063429,60,3,7.8,6.5,7.5,11,28,10,m
265.978968,85,1,9.1,7.2,8.3,8.530885,29,10,m
9009.967068,88,1,8,7.2,7.8,7,55,7,s
3231.512249,80,1,7.4,6.9,7.5,8.530885,36,6,s
221.62554,60,1,7.7,6.1,7.2,8.530885,20,7,m
124.324576,85,1,9.1,7.2,8.3,8.530885,29,9,m
288.449666,85,1,9.1,7.2,8.3,8.530885,29,11,l
120.664262,89,1,7.5,5.8,6.6,4,10,0,s
91.397651,80,3,7.7,6,7.2,9,2,7,m
10397.50715,80,1,8.2,6.88237,8.009683,8,25,0,s
69.503722,83,3,7.5,6.88237,8.009683,9,20,7,m
183.638979,89,1,8.3,6.88237,8.009683,9,22,0,s
424.993458,85,1,6.9,6.88237,8.009683,8.530885,60,0,s
93.175174,85,1,9.1,7.2,8.3,8.530885,29,19,m
206.353343,81,1,8.1,7.1,8.1,8.530885,18,22,m
1321.430703,81,1,7.7,6.88237,8.009683,8.530885,37,0,s
134.312162,85,1,9.1,7.2,8.3,8.530885,29,7,m
313.780483,85,1,9.1,7.2,8.3,8.530885,29,5,m
255.40146,60,1,9.1,7,8.8,8.530885,30,8,l
732.525025,85,1,9.1,7.2,8.3,8.530885,29,18,s
130.076501,85,1,9.1,7.2,8.3,8.530885,29,8,l
955.132425,81,1,7.4,6.88237,8.009683,7,55,5,s
7224.74744,88,1,9.1,7.2,8.3,8.530885,29,7,s
66.93155,85,1,7.1,6.88237,8.009683,8.530885,60,91,s
44.166292,85,1,7.1,6.4,6.9,8.530885,28,0,m
3501.836593,85,1,8.6,6.88237,9.1,8.530885,33,0,s
9590.43576,81,1,9.1,7.2,8.3,8.530885,29,7,m
276.413936,85,1,8.4,6.88237,8.5,8.530885,15,34,l
93.348523,85,1,9.1,7.2,8.3,8.530885,29,11,m
150.088846,85,1,9.1,7.2,8.3,8.530885,29,12,l
115.376291,74,3,7.1,6.88237,8.009683,9,15,0,m
101.210083,85,1,9.1,7.2,8.3,8.530885,29,6,m
15370.04893,71,1,9.1,7,8.8,8.530885,30,0,s
33.566045,50,1,7,6.88237,8.009683,8,21,7,s
771.575651,60,1,9.1,7,8.8,8.530885,30,6,m
31.334668,60,1,6.4,6.88237,8.009683,5,14,0,s
4299.370506,88,1,7.8,6.2,7.2,8.530885,33,12,s
1229.580885,85,1,9.1,7.2,8.3,8.530885,29,6,s
70.766501,85,1,8.3,6.88237,8.1,8.530885,15,63,m
105.537443,85,1,9.1,7.2,8.3,8.530885,29,6,l
3108.669702,82,1,8.1,7.1,8.1,8.530885,18,0,s
5979.40999,80,1,9.1,7.2,8.3,8.530885,29,0,s
169.246028,86,1,8.5,7.7,8.1,9,13,0,l
6041.746869,85,1,7.9,5.8,7.9,8.530885,33,67,s
3884.943996,88,1,8.30368,6.88237,8.009683,8.530885,26.742663,0,s
590.80619,86,1,7.7,6.6,7.6,8,17,9,m
180.854328,85,1,7.8,6.8,7.7,8,24,0,m
64.235592,89,1,8,6.7,7.9,8,39,6,l
9654.273854,81,1,9.1,7.2,8.3,8.530885,29,0,s
164.89135,86,1,8.3,6.5,7.8,8.530885,10,12,l
130.427426,85,1,9.1,7.2,8.3,8.530885,29,7,m
3550.996642,80,3,8.6,6.88237,7.3,6,15,0,l
181.491057,89,1,8.3,6.88237,8.009683,9,22,11,m
117.396746,85,1,9.1,7.2,8.3,8.530885,29,6,l
132.37548,85,1,9.1,7.2,8.3,8.530885,29,8,m
163.721789,85,1,9.1,7.2,8.3,8.530885,29,9,l
1747.591793,85,1,8.8,7,8,8,35,4,s
254.589494,85,1,8.2,6.88237,8.009683,6,7,0,s
26.935285,82,1,7.6,6.5,7.8,8.530885,13,14,m
181.354708,89,1,8.3,6.88237,8.009683,9,22,7,s
3762.714936,80,3,8.6,6.88237,7.3,6,15,0,m
274.506391,85,1,9.1,7.2,8.3,8.530885,29,12,l
182.245956,89,1,8.3,6.88237,8.009683,9,22,18,m
112.180177,89,1,7.3,6.88237,7.3,8.530885,60,0,s
45.055017,82,3,7,5.8,7.1,8.530885,25,8,m
114.102524,85,1,9.1,7.2,8.3,8.530885,29,11,l
143.409803,85,1,5.5,6.1,5.5,8.530885,29,109,s
1050.307278,81,1,8.1,6.88237,8.009683,9,19,8,s
2725.499726,85,1,7.4,6.88237,7.4,8.530885,26.742663,647,l
2264.344858,89,1,8.4,6.7,8.2,8,33,0,s
7606.128841,81,1,9.5,6.88237,8.5,12,33,16,m
16898.83935,85,1,9.5,6.88237,8.5,12,33,27,m
6169.838683,80,1,8.3,6.88237,7.6,8.530885,26.742663,0,m
131.201438,85,1,9.1,7.2,8.3,8.530885,29,7,m
11015.11965,80,1,9.5,6.88237,8.5,12,33,0,m
423.120299,87,1,8.2,6.88237,8.009683,8,32,0,s
144.883989,89,1,8.8,7.2,8.5,9,22,20,m
13155.66235,89,1,9.1,7.2,8.3,8.530885,29,44,m
12215.32285,87,1,9.5,6.88237,8.5,12,33,61,s
177.396907,81,1,8.1,7.1,8.1,8.530885,18,10,m
135.202,85,1,8.3,6.9,8.1,8.530885,27,3,s
69.530984,83,3,7.5,6.88237,8.009683,9,20,12,m
102.360639,85,1,8.1,6.88237,8.3,9,45,9,m
5002.226447,85,1,7.6,6.6,7.5,8.530885,17,0,s
247.659296,85,1,8.4,6.88237,8.5,8.530885,15,0,m
246.561783,85,1,7,6.88237,8.009683,8.530885,80,4,s
824.198084,85,1,7.4,6.88237,7.4,8.530885,60,0,s
1972.807503,85,1,9,6.88237,8.5,7,22,7,m
11814.39084,87,1,9.5,6.88237,8.5,12,33,0,s
258.569496,85,1,9.1,7.2,8.3,8.530885,29,0,l
4986.568094,85,3,9.2,6.88237,8.4,10,25,4,s
152.150981,50,3,7.7,6.88237,7.8,9,20,131,m
286.711558,85,1,7.5,6.88237,7.5,9,10,7,s
7536.304196,80,1,7.7,6.88237,7.7,8.530885,60,11,s
378.28568,71,1,9.5,6.88237,8.5,12,33,836,l
245.111528,60,1,7.8,5.7,7.2,8.530885,18,4,l
4954.887613,80,1,9,6.88237,8.5,7,22,0,m
9422.214671,88,1,8.2,6.88237,8.4,11,25,0,s
62.374494,60,1,7.8,6.5,7.3,8.530885,20,8,m
6308.759611,85,3,7.7,6,7.2,9,2,4,s
234.561092,88,1,7.6,5.4,7.7,8.530885,30,10,m
11007.34734,80,1,9.5,6.88237,8.5,12,33,13,m
105.865215,80,3,7.7,6,7.2,9,2,0,s
7917.631739,88,1,9.1,7.2,8.3,8.530885,29,6,s
11580.05579,82,1,8.2,6.88237,8.009683,9,47,0,s
5953.644547,80,1,9.1,7.2,8.3,8.530885,29,15,m
3641.593197,88,1,7.9,6.88237,8.009683,6,109,0,s
1309.040201,89,1,8.3,6.88237,8.3,11,40,0,l
16877.79911,74,1,9.1,7,8.8,8.530885,30,0,s
239.856405,85,1,8.2,6.88237,8.009683,6,7,144,m
3563.31154,80,3,8.6,6.88237,7.3,6,15,0,m
138.547775,85,1,8.2,6.88237,8.009683,6,7,7,l
127.743587,60,1,7.8,6.5,7.3,8.530885,20,7,l
66.082492,60,1,6.9,6.88237,8.009683,8,34,0,s
54.345086,89,1,8,6.7,7.9,8,39,16,m
179.344074,85,1,9.1,7.2,8.3,8.530885,29,8,m
327.795054,85,1,9.1,7.2,8.3,8.530885,29,5,l
5.681757,85,3,7.5,6.9,7.2,9,10,5,m
253.640764,50,3,7.7,6.88237,7.8,9,20,0,s
16843.79958,85,1,8,6.7,7.8,8,40,4,s
139.456591,85,1,9.1,7.2,8.3,8.530885,29,8,l
16931.59071,85,1,9.5,6.88237,8.5,12,33,4,m
2245.729393,85,1,9,6.88237,8.5,7,22,23,s
14.160237,50,4,8.30368,6.88237,8.009683,8.530885,26.742663,0,l
52.390622,60,1,7.8,6.5,7.3,8.530885,20,12,l
471.924626,85,1,8.1,6.88237,8.3,9,45,69,s
258.363644,60,1,9.1,7,8.8,8.530885,30,7,m
5338.090806,80,1,8.3,6.5,7.8,8.530885,10,0,s
87.300469,85,1,8.3,6.9,8.1,8.530885,27,6,m
139.20041,85,3,7.5,6.9,7.2,9,10,0,s
411.787366,85,1,9.1,7.2,8.3,8.530885,29,10,l
2503.730325,60,1,9.1,7,8.8,8.530885,30,0,s
5935.423411,88,1,8.2,6.88237,8.3,8.530885,33,12,s
362.06069,85,1,7.1,6.3,7.1,9,9,13,s
136.81475,85,1,9.1,7.2,8.3,8.530885,29,6,m
10308.68131,89,3,8.6,6.88237,7.3,6,15,7,l
2617.133676,89,1,8.4,6.7,8.2,8,33,0,s
1288.701003,89,1,8.8,7.2,8.5,9,22,0,s
267.940627,60,1,7.7,6.1,7.2,8.530885,20,10,l
4615.341205,88,1,7.7,6.88237,7.3,10,51,4,s
3328.446051,80,1,7.9,6.4,7.4,8,24,6,s
11157.31561,80,1,9.5,6.88237,8.5,12,33,0,m
91.484734,86,1,7.1,6.6,6.5,8.530885,63,0,s
80.223021,85,1,6.9,6.88237,6.9,8.530885,30,32,s
5007.573822,80,1,9,6.88237,8.5,7,22,14,m
50.060699,85,1,7.5,6.88237,8.009683,5,40,0,m
4399.418415,80,3,9.2,6.88237,8.4,10,25,44,m
115.512304,85,1,9.1,7.2,8.3,8.530885,29,8,m
29.889463,82,1,8.1,6.8,7.9,8.530885,24,17,m
187.961404,81,1,8.1,7.1,8.1,8.530885,18,14,l
149.52627,85,1,8.4,6.88237,8.4,8.530885,26.742663,0,l
141.104151,86,1,8.3,7.3,8.1,9,14,0,m
436.398886,85,1,9.1,7.2,8.3,8.530885,29,10,m
448.160842,85,1,9.1,7.2,8.3,8.530885,29,6,m
738.827534,85,1,9.1,7.2,8.3,8.530885,29,8,s
152.429376,85,1,9.1,7.2,8.3,8.530885,29,6,l
119.633229,85,1,9.1,7.2,8.3,8.530885,29,7,m
51.453573,85,1,8.3,6.88237,8.1,8.530885,15,0,m
4827.723589,60,1,9.1,7,8.8,8.530885,30,10,m
414.444772,85,1,8.2,6.88237,7.8,9,30,0,s
16989.73836,85,1,9.5,6.88237,8.5,12,33,0,m
268.531952,85,1,9.1,7.2,8.3,8.530885,29,8,m
161.063361,85,1,8.3,6.88237,8.1,8.530885,15,0,m
57.191426,83,3,7.5,6.88237,8.009683,9,20,20,m
69.716018,83,3,7.5,6.88237,8.009683,9,20,12,l
178.977224,81,1,8.1,7.1,8.1,8.530885,18,9,m
47.608698,50,1,7,6.88237,8.009683,8,21,8,m
183.089673,89,1,8.3,6.88237,8.009683,9,22,18,s
98.946293,85,1,9.1,7.2,8.3,8.530885,29,8,s
476.163798,50,1,6.8,6.5,6.9,10,12,2,s
234.541238,85,1,8.3,6.88237,8.1,8.530885,15,6,s
181.340665,89,1,8.3,6.88237,8.009683,9,22,13,s
6085.948229,85,1,7.9,5.8,7.9,8.530885,33,95,s
5123.986727,88,1,7.5,6.88237,8.009683,6,57,0,s
76.268964,85,3,7.5,6.9,7.2,9,10,5,m
1725.132888,81,1,7.7,6.88237,8.009683,7,10,0,s
273.901761,85,1,9.1,7.2,8.3,8.530885,29,7,l
1027.772251,81,1,7.3,6.8,7.4,8.530885,16,5,s
7606.639429,81,1,9.5,6.88237,8.5,12,33,0,s
177.612339,81,1,8.1,7.1,8.1,8.530885,18,14,m
182.555516,89,1,8.3,6.88237,8.009683,9,22,0,m
260.518085,60,1,9.1,7,8.8,8.530885,30,8,l
49.237432,82,1,8.1,6.8,7.9,8.530885,24,20,l
182.289361,89,1,8.3,6.88237,8.009683,9,22,10,m
7356.011585,81,1,8.8,7.2,8.5,9,22,0,m
6482.327687,85,1,7.5,6.4,7.3,8.530885,33,46,s
81.451984,89,1,6.9,6.88237,8.009683,7,12,0,s
130.122174,85,1,9.1,7.2,8.3,8.530885,29,9,l
8038.046163,88,1,8.2,6.88237,8.009683,8,25,33,s
448.617666,85,1,7.7,6.5,7.7,8,48,0,s
771.132164,74,1,7.3,6.88237,8.009683,10,33,0,s
269.145204,50,3,7,6.88237,7.2,11,40,27,s
2465.564912,88,1,8.2,6.88237,8.009683,8,32,0,s
16490.7665,86,1,8.8,7.2,8.5,9,22,0,s
55.490968,85,3,7.5,6.9,7.2,9,10,1,s
1795.423168,60,1,9.1,7,8.8,8.530885,30,7,l
75.478073,85,1,9.1,7.2,8.3,8.530885,29,8,l
637.10853,89,1,8.2,6.88237,8.2,11,26.742663,0,l
3588.855168,80,3,8.6,6.88237,7.3,6,15,0,m
2725.499726,60,3,7.8,6.5,7.5,11,28,647,m
249.710962,85,1,7.2,6.2,6.8,8.530885,37,0,s
1344.523674,86,3,7.5,6.9,7.2,9,10,71,s
1616.957438,60,1,9.1,7,8.8,8.530885,30,9,l
10969.30593,80,1,9.5,6.88237,8.5,12,33,3,m
486.867775,85,1,7.7,6.6,7.6,8,17,0,s
16988.67625,85,1,9.5,6.88237,8.5,12,33,16,m
43.129548,83,3,7.8,6.88237,7.8,8.530885,26.742663,0,l
428.929134,85,1,9.1,7.2,8.3,8.530885,29,9,m
5925.080954,80,1,9.1,7.2,8.3,8.530885,29,11,m
134.918159,85,1,9.1,7.2,8.3,8.530885,29,6,l
8121.775319,82,1,8.8,7,8,8,35,12,s
427.440066,85,1,9.1,7.2,8.3,8.530885,29,5,m
167.395359,85,1,7.7,6.88237,7.7,8.530885,30,0,s
179.448996,85,1,7,5.8,7,8.530885,15,0,s
302.736237,85,1,7.7,6.6,7.6,8,17,62,s
82.363826,60,1,7.8,6.5,7.3,8.530885,20,6,l
6114.805824,80,1,9.1,7.2,8.3,8.530885,29,0,m
122.621986,85,1,7.5,6.88237,7.5,8.530885,20,0,s
85.047659,84,1,8,6.4,7.9,6,33,333,m
4518.395501,85,3,8.2,6.5,8.1,9,33,0,s
33.965633,85,1,6.1,6.88237,6.1,8.530885,26.742663,621,s
40.143474,89,1,8,6.7,7.9,8,39,15,m
181.468274,89,1,8.3,6.88237,8.009683,9,22,20,s
130.31432,60,1,7.8,6.5,7.3,8.530885,20,15,l
1825.025117,60,1,9.1,7,8.8,8.530885,30,7,m
17461.12795,85,1,9.5,6.88237,8.5,12,33,65,m
415.847627,85,1,7.7,6.5,7.7,8,48,0,s
11549.8958,80,1,9.1,7,8.8,8.530885,30,0,s
189.896887,85,1,8.4,6.88237,8.4,8.530885,26.742663,0,m
994.043326,88,1,7.5,6.2,7.5,8.530885,43,2,s
9340.92168,88,1,8,6.88237,8,8.530885,26.742663,0,s
181.695565,89,1,8.3,6.88237,8.009683,9,22,11,m
15443.28546,89,1,8.3,6.5,7.8,8.530885,10,20,s
105.635086,89,1,8.3,6.88237,8.009683,9,22,17,m
24.407067,85,5,6.4,6.88237,6.4,8.530885,26.742663,6,l
5569.880987,80,1,8.3,6.5,7.8,8.530885,10,7,s
69.352775,83,3,7.5,6.88237,8.009683,9,20,10,m
7960.698528,88,1,9.1,7.2,8.3,8.530885,29,12,s
366.966443,85,1,7.1,6.3,7.1,9,9,15,s
109.101933,85,1,8.2,6.88237,8.2,8.530885,26.742663,21,m
18.692855,85,1,6.2,5.8,6.2,8,15,100,s
269.350603,85,1,7.3,6.6,7.3,8.530885,51,0,s
21.353209,85,1,7.1,6.88237,8.009683,8.530885,25,7,s
12652.3231,81,1,8,6.6,7.3,7,46,0,s
198.459973,81,1,8.1,7.1,8.1,8.530885,18,17,m
99.912795,88,1,8.2,6.88237,8.009683,9,47,6,m
125.341252,85,1,9.1,7.2,8.3,8.530885,29,9,l
115.700051,85,1,9.1,7.2,8.3,8.530885,29,7,l
382.218763,85,1,8.2,6.88237,8.009683,6,7,0,s
14404.42678,85,1,6.8,6.88237,8.009683,8.530885,93,0,s
185.620134,85,1,8.1,6.88237,8,8.530885,30,0,m
24.692804,85,1,7.9,6.88237,7.9,8.530885,35,13,s
351.159879,85,1,8.1,6.88237,8.3,9,45,0,s
7241.478154,81,3,8.6,6.88237,7.3,6,15,0,l
191.252894,60,1,7.7,6.1,7.2,8.530885,20,8,l
296.149898,85,1,6.7,6.3,6.6,8.530885,22,95,s
67.454512,50,3,7,6.88237,7.2,11,40,30,l
44.257394,85,1,8.3,6.88237,8.1,8.530885,15,0,l
38.003323,88,1,8,6.8,8.1,9,28,80,m
117.412952,85,1,9.1,7.2,8.3,8.530885,29,9,l
166.965911,85,1,8.2,6.88237,8.009683,6,7,0,m
104.910764,85,1,9.1,7.2,8.3,8.530885,29,8,l
2015.185682,60,1,9.1,7,8.8,8.530885,30,0,m
129.513097,85,1,9.1,7.2,8.3,8.530885,29,7,m
212.072317,81,1,8.1,7.1,8.1,8.530885,18,26,m
6495.030408,85,1,7.9,5.8,7.9,8.530885,33,0,s
258.266897,85,1,9.1,7.2,8.3,8.530885,29,6,m
5730.353754,88,1,7.2,6.88237,7.2,10,20,0,s
213.616333,85,1,6.7,6.88237,8.009683,8.530885,10,0,s
3482.935067,80,3,8.6,6.88237,7.3,6,15,0,l
2522.303049,60,1,9.1,7,8.8,8.530885,30,6,m
187.951276,81,1,8.1,7.1,8.1,8.530885,18,15,l
193.69024,85,1,9.1,7.2,8.3,8.530885,29,15,l
16.536716,85,1,7.1,6.88237,7.1,8.530885,26.742663,8,s
1044.685455,84,1,7.7,6.6,7.6,8,17,62,m
42.078053,82,1,7.9,6.6,7.9,8,49,9,s
3143.213655,85,1,7.4,6.3,7.4,6,73,52,s
1220.989846,81,1,8.1,7.1,8.1,8.530885,18,0,s
8726.107789,81,1,9.5,6.88237,8.5,12,33,0,s
7428.361686,88,1,7.7,6.88237,7.7,8.530885,20,12,s
6564.960321,85,1,7.5,6.4,7.3,8.530885,33,0,s
1810.305673,60,1,9.1,7,8.8,8.530885,30,8,l
1105.703164,50,1,7.8,6.7,7.9,6,33,0,s
1011.259214,87,1,7.9,6.7,7.6,6,10,23.263212,s
98.860605,86,1,8.3,6.5,7.8,8.530885,10,13,l
315.663207,85,1,9.1,7.2,8.3,8.530885,29,0,m
306.37253,85,1,8.4,6.88237,8.5,8.530885,15,0,m
202.494019,85,1,7.4,6.4,7.4,6,29,69,s
183.161956,85,1,6.6,5.8,6.6,8.530885,50,6,s
168.227582,89,1,7.5,5.8,6.6,4,10,8,m
4286.892667,60,1,8.1,6.88237,8.009683,8.530885,48,4,s
9763.19777,81,1,8.3,6.88237,8.009683,9,22,0,s
128.748336,85,1,9.1,7.2,8.3,8.530885,29,8,m
235.848151,89,1,8.8,7.2,8.5,9,22,19,l
4394.106421,80,1,8.3,6.88237,8.3,8.530885,25,0,s
260.351332,85,1,9.1,7.2,8.3,8.530885,29,8,s
40.646792,85,1,7.6,6.88237,7.3,8.530885,74,0,s
67.524137,85,1,8.3,6.9,8.1,8.530885,27,1,m
116.524332,85,1,7.1,6.88237,8.009683,8.530885,60,108,s
680.217356,85,1,8.2,6.88237,8.009683,6,7,0,s
183.085933,89,1,8.3,6.88237,8.009683,9,22,14,s
381.380038,85,1,7.7,6.88237,7.7,8.530885,30,0,s
206.984799,88,1,7.7,6.5,7.5,8.530885,14,0,s
88.983157,85,1,9.1,7.2,8.3,8.530885,29,12,s
311.095918,85,1,8.2,6.88237,8.009683,6,7,104,m
87.289272,85,1,9.1,7.2,8.3,8.530885,29,9,l
189.11826,81,1,8.1,7.1,8.1,8.530885,18,7,l
133.886142,85,1,7.1,6.3,7.1,9,9,0,s
7384.203588,85,3,7.7,6,7.2,9,2,0,s
261.031667,60,1,9.1,7,8.8,8.530885,30,7,m
119.708443,85,1,7.8,6.8,7.7,8,24,0,m
209.52871,85,1,8.3,6.9,8.1,8.530885,27,0,m
130.237034,85,1,9.1,7.2,8.3,8.530885,29,8,m
7856.373443,85,3,7.7,6,7.2,9,2,12,s
10707.60821,80,1,9.5,6.88237,8.5,12,33,0,m
196.885967,85,1,7.4,6.6,7.4,10,66,7,s
161.210555,86,1,8.3,6.5,7.8,8.530885,10,0,l
6289.259244,87,1,9.1,7.2,8.3,8.530885,29,0,s
2725.499726,81,1,9.5,6.88237,8.5,12,33,647,s
96.730861,85,1,9.1,7.2,8.3,8.530885,29,5,l
268.031647,85,1,9.1,7.2,8.3,8.530885,29,8,s
232.834007,85,1,9.1,7.2,8.3,8.530885,29,13,l
298.919175,85,1,9.1,7.2,8.3,8.530885,29,3,m
100.456994,85,1,9.1,7.2,8.3,8.530885,29,6,l
101.155753,85,1,7.4,6.88237,7.4,8.530885,26.742663,0,l
63.390644,89,1,8,6.7,7.9,8,39,8,m
7855.588693,88,1,9.1,7.2,8.3,8.530885,29,0,s
5.877994,85,3,7.5,6.9,7.2,9,10,7,m
157.179031,85,1,8.3,6.88237,8.1,8.530885,15,5,s
4332.547876,81,1,8.8,7,8,8,35,9,s
6715.601589,87,1,7.9,6.88237,7.9,9,47,0,s
104.227074,85,1,9.1,7.2,8.3,8.530885,29,6,m
3549.412344,80,1,8.6,6.88237,9.1,8.530885,33,0,l
66.701559,50,3,7,6.88237,7.2,11,40,12,m
6584.078688,85,3,7.7,6,7.2,9,2,0,s
82.619156,85,1,9.1,7.2,8.3,8.530885,29,17,l
112.550787,85,1,5.9,6.3,5.6,8.530885,26,9,s
79.798355,85,1,9.1,7.2,8.3,8.530885,29,14,l
83.089956,85,1,7.9,6.88237,7.9,8.530885,26.742663,0,l
101.463712,85,1,9.1,7.2,8.3,8.530885,29,8,m
274.366084,85,1,7.1,6.3,7.1,8,50,0,s
3738.347641,85,3,7,5.8,7.1,8.530885,25,4,s
466.821854,85,1,9.1,7.2,8.3,8.530885,29,7,m
1221.283974,60,1,8.4,6.9,8.5,8.530885,34,20,s
121.479428,85,1,9.1,7.2,8.3,8.530885,29,9,m
664.830548,60,1,9.1,7,8.8,8.530885,30,13,l
4140.782408,80,1,7.7,6.5,7.5,8.530885,14,10,s
6264.052063,85,3,7.7,6,7.2,9,2,19,s
184.149753,89,1,8.3,6.88237,8.009683,9,22,0,s
161.804497,82,1,7.1,6.4,7.1,5,10,16,s
6147.458358,88,1,8.3,6.88237,8.009683,9,22,8,s
3540.942005,81,1,8.1,6.88237,8.009683,9,19,0,s
2725.499726,84,1,7.5,6.4,7.3,8.530885,33,647,s
7231.955963,81,1,8.8,7.2,8.5,9,22,8,m
1041.544256,84,1,7.7,6.6,7.6,8,17,10,m
3890.024125,80,1,7.8,6.2,7.2,8.530885,33,0,s
181.60991,89,1,8.3,6.88237,8.009683,9,22,15,m
83.315012,85,1,9.1,7.2,8.3,8.530885,29,0,l
419.837492,87,1,8.6,6.88237,9.1,8.530885,33,5,l
312.450935,85,1,8.4,6.88237,8.5,8.530885,15,0,m
661.979137,77,0,8.30368,5,8.009683,8.530885,10,19,m
24.246394,50,1,7,6.88237,8.009683,8,21,7,m
3566.539521,80,3,8.6,6.88237,7.3,6,15,0,m
1768.604075,82,1,8.1,6.88237,8.009683,9,19,7,s
16.782093,50,1,7,6.88237,8.009683,8,21,11,m
181.54952,89,1,8.3,6.88237,8.009683,9,22,13,m
10875.84568,87,1,8.4,6.7,8.2,8,33,0,s
2108.196862,60,1,9.1,7,8.8,8.530885,30,0,m
5856.421147,60,1,9.1,7,8.8,8.530885,30,0,m
1360.029163,85,1,9.1,7.2,8.3,8.530885,29,9,s
331.40286,40,1,6.7,6.88237,6.7,8,26.742663,57,s
13315.73288,89,1,9.1,7.2,8.3,8.530885,29,3,m
536.475542,85,1,8.3,6.88237,8.009683,10,40,4,s
7.740407,83,1,6,6.88237,8.009683,8.530885,26.742663,17,s
10136.23443,81,1,9.5,6.88237,8.5,12,33,13,s
6371.48932,60,1,9.1,7,8.8,8.530885,30,14,m
10858.43292,81,1,9.5,6.88237,8.5,12,33,9,s
2328.811654,88,1,8.2,6.88237,8.009683,8,32,4,s
74.332724,50,1,6.6,6.88237,8.009683,7,17,5,s
9966.571331,88,1,8.3,6.88237,8.009683,9,22,0,s
9343.493859,86,1,8.1,6.88237,8.009683,9,19,84,s
94.16962,85,1,9.1,7.2,8.3,8.530885,29,7,m
62.738456,83,3,7.5,6.88237,8.009683,9,20,12,m
5967.84083,80,1,9.1,7.2,8.3,8.530885,29,0,s
5543.023387,85,1,7.9,6.6,7.9,8,49,0,s
6944.465528,73,1,8.3,6.88237,8.6,12,25,145,s
2253.861782,60,1,9.1,7,8.8,8.530885,30,3,l
2299.282889,60,1,9.1,7,8.8,8.530885,30,9,m
21.454375,88,1,7.7,6.5,7.5,8.530885,14,19,l
181.48756,89,1,8.3,6.88237,8.009683,9,22,18,m
2231.671616,88,1,8.2,6.88237,8.009683,8,32,23.263212,s
17088.07886,85,1,9.5,6.88237,8.5,12,33,5,l
20.377766,85,1,7.7,6.5,7.7,8,48,11,m
98.868771,85,1,9.1,7.2,8.3,8.530885,29,7,l
5792.565128,80,1,9.1,7.2,8.3,8.530885,29,0,m
47.018157,89,1,8.4,6.7,8.2,8,33,0,l
24.409743,50,1,7.3,6.88237,7.1,10,60,26,m
16958.64574,85,1,8,6.7,7.8,8,40,0,s
4612.760106,80,3,9.2,6.88237,8.4,10,25,0,m
10372.33586,81,1,8.2,6.88237,8.009683,8,25,9,s
6223.70239,80,1,9.1,7.2,8.3,8.530885,29,6,m
70.638517,85,1,7.5,6.88237,8.009683,5,40,7,m
5516.812049,81,1,8.6,6.88237,9.1,8.530885,33,18,s
98.79173,85,1,8.3,6.9,8.1,8.530885,27,8,m
184.937381,85,1,5.5,5.5,5.5,8.530885,41,0,s
44.534968,85,1,7,6.88237,7,8.530885,26.742663,0,s
147.910302,89,1,8.8,7.2,8.5,9,22,14,m
5450.576094,80,1,8,6.6,7.4,8.530885,33,0,s
172.086286,81,1,8.1,7.1,8.1,8.530885,18,10,m
220.995194,85,1,7.8,6.8,7.7,8,24,20,s
263.511593,74,1,7.2,6.88237,7.2,6,7,50,s
59.906846,87,3,9.2,6.88237,8.4,10,25,0,l
4954.49658,88,1,8.6,6.88237,9.1,8.530885,33,0,s
63.4072,89,1,8,6.7,7.9,8,39,8,m
554.253694,60,1,9.1,7,8.8,8.530885,30,41,s
1318.707432,82,1,7.8,6.88237,8.009683,8,40,3,s
1585.588636,87,1,8,6.4,7.7,6,19,0,s
413.512803,86,1,9,6.88237,8.5,7,22,1,l
265.72089,89,1,8.8,7.2,8.5,9,22,23,l
115.065298,88,1,7.6,5.4,7.7,8.530885,30,7,l
1061.579627,85,1,9.1,7.2,8.3,8.530885,29,0,m
114.249494,83,3,6.8,6.88237,6.8,8.530885,40,192,m
179.500452,89,1,8.3,6.88237,8.009683,9,22,0,m
99.023337,85,1,9.1,7.2,8.3,8.530885,29,5,l
7962.977402,88,1,8.3,7.3,8.1,9,14,0,s
2035.007718,60,1,9.1,7,8.8,8.530885,30,9,m
167.326882,85,1,8.3,6.88237,8.1,8.530885,15,0,s
76.899544,88,1,7.4,6.88237,8.009683,8.530885,26,0,s
196.885967,85,1,7.4,6.6,7.4,10,66,7,s
11745.54198,87,1,9.5,6.88237,8.5,12,33,0,s
239.491025,85,1,9.1,7.2,8.3,8.530885,29,12,l
6403.917464,83,1,8.8,7,8,8,35,72,s
9252.845006,81,1,9.1,7,8.8,8.530885,30,0,s
258.079846,85,1,9.1,7.2,8.3,8.530885,29,1,m
41.077059,88,1,7.7,6.5,7.5,8.530885,14,9,m
89.022324,85,1,8.3,6.9,8.1,8.530885,27,14,m
4992.718624,80,1,9,6.88237,8.5,7,22,0,m
469.934066,85,1,7.7,6.5,7.7,8,48,0,s
6124.295211,80,1,9.1,7.2,8.3,8.530885,29,8,m
1474.192637,89,1,8,6.7,7.9,8,39,0,s
181.680743,89,1,8.3,6.88237,8.009683,9,22,18,m
755.905193,85,1,7.9,6.88237,7.9,8.530885,35,10,s
182.361013,89,1,8.3,6.88237,8.009683,9,22,10,m
103.186596,89,1,8.2,6.88237,8.009683,8,25,8,m
206.029152,85,1,9.1,7.2,8.3,8.530885,29,11,l
203.811048,85,1,8.3,6.88237,8.3,8.530885,26.742663,0,m
226.661978,60,1,7.8,5.7,7.2,8.530885,18,5,m
3429.934911,88,3,9.2,6.88237,8.4,10,25,5,m
1786.571631,60,1,9.1,7,8.8,8.530885,30,8,l
130.112991,83,3,8.2,6.5,8.1,9,33,0,m
35.714833,88,1,7.4,6.88237,8.009683,8.530885,26,5,s
51.143457,85,3,7.5,6.9,7.2,9,10,7,l
1266.730971,86,1,9,6.88237,8.5,7,22,460,m
13199.17268,89,1,9.1,7.2,8.3,8.530885,29,0,s
231.432368,88,1,7.6,5.4,7.7,8.530885,30,10,l
11.62213,50,3,7,6.88237,7.2,11,40,0,s
24.404994,82,1,8.1,6.8,7.9,8.530885,24,10,m
2963.741946,85,1,7.4,6.3,7.4,6,73,49,s
72.280913,85,1,7.9,6.88237,7.9,8.530885,35,14,m
25.999703,85,3,7.5,6.9,7.2,9,10,9,s
124.753422,60,1,8.4,6.9,8.5,8.530885,34,13,m
94.67977,50,3,7.7,6.88237,7.8,9,20,2,m
1971.743897,60,1,8.6,7.4,8.5,8.530885,20,6,s
3572.88398,80,3,8.6,6.88237,7.3,6,15,25,s
16980.97807,85,1,9.5,6.88237,8.5,12,33,109,m
181.38629,89,1,8.3,6.88237,8.009683,9,22,13,s
216.610358,85,1,9.1,7.2,8.3,8.530885,29,9,l
220.030364,84,1,6.7,6.5,6.7,8.530885,13,0,s
1231.397924,85,1,8.3,7.3,8.1,9,14,0,s
15776.9427,85,1,8.4,6.7,8.2,8,33,40,s
136.591891,74,1,6.4,6.3,6.3,6,13,127,s
119.107016,85,1,9.1,7.2,8.3,8.530885,29,5,m
382.017488,60,1,8.30368,6.88237,8.009683,11,26.742663,12,m
10826.59516,80,1,9.5,6.88237,8.5,12,33,0,m
30.427727,85,3,7.5,6.9,7.2,9,10,9,s
6031.356136,80,1,8.1,6.8,7.9,8.530885,24,0,s
17105.07755,85,1,9.5,6.88237,8.5,12,33,0,m
188.545469,84,1,8,6.4,7.9,6,33,36,m
14.838346,84,1,7.1,6.1,7.1,8.530885,32,9,m
125.619769,85,1,9.1,7.2,8.3,8.530885,29,9,m
3679.721734,80,3,8.6,6.88237,7.3,6,15,0,l
361.638011,85,1,5.7,5.4,5.1,8.530885,33,100,s
181.817746,89,1,8.3,6.88237,8.009683,9,22,13,m
7258.457587,81,3,8.6,6.88237,7.3,6,15,4,l
46.762836,83,3,7.5,6.88237,8.009683,9,20,11,m
17012.20791,85,1,9.5,6.88237,8.5,12,33,0,m
10640.36371,80,1,9.5,6.88237,8.5,12,33,20,m
3205.27414,85,1,8.8,7,8,8,35,91,s
9076.512413,77,1,9.1,7,8.8,8.530885,30,0,s
261.949418,60,1,9.1,7,8.8,8.530885,30,5,l
5579.224482,80,1,7.5,6.4,7.3,8.530885,33,0,s
794.347168,85,1,7.5,6.4,7.3,8.530885,33,4,s
193.318143,85,1,6.9,6.4,6.7,10,44,0,s
181.361722,89,1,8.3,6.88237,8.009683,9,22,14,s
244.720517,85,1,9.1,7.2,8.3,8.530885,29,7,l
598.109852,60,1,9.1,7,8.8,8.530885,30,12,l
6029.472858,60,1,9.1,7,8.8,8.530885,30,40,m
135.963111,85,1,9.1,7.2,8.3,8.530885,29,4,l
2376.587427,81,1,7.7,6.88237,8.009683,7,10,2,s
1616.962909,60,1,9.1,7,8.8,8.530885,30,13,l
121.676723,85,1,9.1,7.2,8.3,8.530885,29,10,m
264.47373,60,1,9.1,7,8.8,8.530885,30,7,l
2725.499726,85,1,8.3,6.88237,8.1,8.530885,15,647,m
8323.184669,88,1,8.2,6.88237,8.009683,6,7,5,s
91.077253,85,1,8.4,6.88237,8.4,8.530885,26.742663,0,l
319.349304,83,3,8.2,6.5,8.1,9,33,72,m
2024.264793,85,1,9,6.88237,8.5,7,22,0,s
3130.918987,81,1,8.1,6.88237,8.009683,9,19,0,s
166.830968,81,1,8.1,7.1,8.1,8.530885,18,11,m
3563.393962,80,3,8.6,6.88237,7.3,6,15,0,l
5401.942931,88,1,8.1,7.3,8.2,8.530885,10,12,s
133.373557,85,1,9.1,7.2,8.3,8.530885,29,8,s
96.306326,85,1,9.1,7.2,8.3,8.530885,29,5,s
217.09561,89,1,8.1,6.88237,7.5,9,38,0,m
13310.82349,89,1,9.1,7.2,8.3,8.530885,29,0,m
3826.460852,88,1,7.9,6.6,7.6,6,33,0,s
6050.280672,60,1,9.1,7,8.8,8.530885,30,13,m
50.750386,60,1,7.8,6.5,7.3,8.530885,20,6,s
16060.64492,85,1,8,6.6,7.3,7,46,0,s
9997.693896,88,1,8.8,7.2,8.5,9,22,0,s
9668.90997,88,1,8,6.6,7.3,7,46,0,s
50.970077,85,3,7.5,6.9,7.2,9,10,7,l
254.65881,85,1,7.2,6,7.2,8.530885,44,0,s
27.169078,86,1,7,6.3,7,7,44,0,s
95.730918,85,1,8.3,6.88237,8.1,8.530885,15,205,m
24.650757,50,1,7,6.88237,8.009683,8,21,8,s
5954.695332,60,1,9.1,7,8.8,8.530885,30,17,m
1235.052855,86,1,7.1,6.88237,8.009683,6,35,23.263212,s
45.640287,89,1,8.8,7.2,8.5,9,22,15,l
95.203034,85,1,9.1,7.2,8.3,8.530885,29,8,l
10628.26202,89,1,8.1,7.1,8.1,8.530885,18,0,s
9322.68956,81,1,9.1,7.2,8.3,8.530885,29,0,s
17395.74172,85,1,8.2,7.6,7.9,8.530885,35,0,s
258.213533,85,1,9.1,7.2,8.3,8.530885,29,5,m
62.769915,83,3,7.5,6.88237,8.009683,9,20,12,l
22.142408,88,1,8,6.6,7.4,8.530885,33,0,l
59.693411,82,1,7.5,6.4,7.3,8.530885,33,95,m
1568.591913,89,1,8.3,6.88237,8.3,11,40,137,m
100.085676,85,1,9.1,7.2,8.3,8.530885,29,7,l
61.31869,85,1,6.9,6.88237,8.009683,8,9,0,s
2579.145371,60,1,9.1,7,8.8,8.530885,30,0,m
304.918064,87,1,7.7,6.5,7.5,8.530885,14,0,s
83.93248,82,1,7.6,6.5,7.8,8.530885,13,12,s
525.915661,86,1,8.2,6.88237,7.8,9,30,29,s
10644.19662,80,1,7.1,6.88237,7.1,6,30,0,s
291.380115,85,1,8.2,6.88237,8.009683,6,7,0,m
2867.277575,88,3,8.6,6.88237,7.3,6,15,6,m
3811.202887,80,3,8.6,6.88237,7.3,6,15,0,m
13203.17809,89,1,9.1,7.2,8.3,8.530885,29,7,l
35.484534,60,1,7.8,6.5,7.3,8.530885,20,10,m
98.666668,85,1,8.3,6.9,8.1,8.530885,27,6,m
248.486544,85,1,6.9,6.88237,8.009683,8.530885,60,4,s
329.280535,85,1,6.9,6.6,6.9,8.530885,48,0,s
280.94189,85,1,8.4,6.88237,8.5,8.530885,15,0,m
152.301805,89,1,8.8,7.2,8.5,9,22,11,m
265.880032,86,1,7.1,6.3,7.1,9,9,8,s
1147.796357,85,1,8.5,7.7,8.1,9,13,0,s
55.002898,85,1,7,6.88237,7,8.530885,34,0,s
181.701165,60,1,7.7,6.1,7.2,8.530885,20,9,s
131.660452,85,1,9.1,7.2,8.3,8.530885,29,6,l
56.271541,60,1,8.6,7.2,8.4,8.530885,30,5,s
3682.458905,89,1,8.3,6.88237,8.009683,9,22,0,s
74.198239,60,1,7.8,6.5,7.3,8.530885,20,11,l
833.069878,85,1,7.6,6.88237,7.3,8.530885,74,7,s
138.804291,85,3,7.5,6.9,7.2,9,10,0,s
247.830511,85,1,8.4,6.88237,8.5,8.530885,15,19,m
9510.061485,88,1,8.8,7.2,8.5,9,22,0,s
3623.44392,80,3,8.6,6.88237,7.3,6,15,132,l
8205.998249,81,1,7.7,6.5,7.5,8.530885,14,0,s
112.891348,60,1,9.1,7,8.8,8.530885,30,11,m
313.550653,85,1,9.1,7.2,8.3,8.530885,29,5,s
1098.647739,82,1,7.9,6.4,7.4,8,24,12,s
4113.19998,80,1,7.7,6.5,7.5,8.530885,14,6,s
4320.763739,84,1,8.8,7,8,8,35,0,s
606.393383,85,1,9.1,7.2,8.3,8.530885,29,0,s
248.144297,85,1,9.1,7.2,8.3,8.530885,29,0,l
11.108836,50,1,6.6,6.88237,8.009683,7,7,0,m
138.45064,89,1,6.9,6.88237,8.009683,7,12,42,s
36.399229,85,1,7.6,6.88237,7.3,8.530885,74,0,s
183.688172,89,1,8.3,6.88237,8.009683,9,22,7,s
7922.218164,73,1,8.6,8,8.6,11,33,23,s
104.98469,81,1,7.8,6.88237,8.009683,9,15,0,m
14531.48276,85,1,8.1,6.4,7.7,9,23,8,s
130.201157,60,1,7.8,6.5,7.3,8.530885,20,7,m
1894.752203,82,1,7.6,7,7.8,8.530885,17,0,s
135.6122,85,1,8.1,6.88237,8,8.530885,30,0,m
181.508026,89,1,8.3,6.88237,8.009683,9,22,11,m
1338.775822,86,1,8,6.4,7.7,6,19,0,s
219.326417,85,1,7,6.88237,8.009683,8.530885,40,5,s
8405.119734,88,1,8,7.2,7.8,7,55,0,s
104.738724,85,1,7.3,6.6,7.3,8.530885,51,4,s
3643.325056,80,3,8.6,6.88237,7.3,6,15,0,l
116.003542,85,1,7,6.88237,8.009683,8.530885,50,0,s
180.063343,86,1,8.8,7,8,8,35,0,m
322.387668,81,1,7.4,6.8,8,8.530885,21,0,s
6370.819698,82,1,9,6.88237,8.5,7,22,78,s
106.640597,85,1,9.1,7.2,8.3,8.530885,29,7,m
10995.16011,80,1,9.5,6.88237,8.5,12,33,25,m
483.551733,85,1,7.8,6.8,7.7,8,24,8,s
598.394995,85,1,8.3,7.3,8.1,9,14,0,s
2579.18908,60,1,9.1,7,8.8,8.530885,30,3,m
130.649365,85,1,9.1,7.2,8.3,8.530885,29,7,m
125.732756,85,1,9.1,7.2,8.3,8.530885,29,6,l
8701.606588,88,1,8.8,7,8,8,35,0,s
477.964808,85,1,9.1,7.2,8.3,8.530885,29,0,m
598.701687,85,1,7.1,6.4,6.9,8.530885,28,24,s
356.77207,85,1,8.1,6.88237,8.3,9,45,0,m
7889.73973,81,1,8.3,6.88237,8.009683,9,22,5,s
30.218944,82,1,7.5,6.4,7.3,8.530885,33,81,m
72.248992,85,1,7.3,6.6,7.3,8.530885,51,0,s
2109.588347,60,1,9.1,7,8.8,8.530885,30,18,l
200.917363,85,1,9.1,7.2,8.3,8.530885,29,7,m
137.757779,85,1,6.9,6.88237,8.009683,8,9,26,s
185.792985,81,1,8.1,7.1,8.1,8.530885,18,17,m
474.106729,85,1,7.3,6.4,7.3,8.530885,32,7,s
740.77889,87,3,9.2,6.88237,8.4,10,25,9,m
66.954431,86,1,7.8,6.1,7.8,10,33,0,s
258.526043,85,1,9.1,7.2,8.3,8.530885,29,6,m
10383.29843,81,1,8.2,6.88237,8.009683,8,25,12,s
2200.225163,89,1,9.5,6.88237,8.5,12,33,8,s
4601.459662,60,1,9.1,7,8.8,8.530885,30,16,m
114.318383,85,1,6.9,6.2,7,8.530885,22,0,s
10480.76029,81,1,8.2,6.88237,8.009683,8,25,3,s
3646.787136,80,1,8.6,6.88237,9.1,8.530885,33,0,l
527.225777,60,1,9.1,7,8.8,8.530885,30,0,m
4371.021686,85,1,7.8,6.88237,8.009683,8,23,7,s
446.796552,86,1,7.3,6.88237,7.3,8.530885,40,7,s
120.762131,85,1,9.1,7.2,8.3,8.530885,29,9,m
747.267174,89,1,8.2,6.88237,8.009683,8,25,0,s
301.212782,60,1,9.1,7,8.8,8.530885,30,5,s
179.690134,89,1,8.3,6.88237,8.009683,9,22,0,m
2725.499726,60,1,9.1,7,8.8,8.530885,30,647,l
5.416693,85,3,7.5,6.9,7.2,9,10,5,m
231.819974,74,1,7.3,6.88237,8.009683,10,33,40,m
160.549626,82,1,8.1,6.8,7.9,8.530885,24,23,m
667.045156,81,1,8.1,7.1,8.1,8.530885,18,12,s
190.292519,86,1,7,5.8,7,8.530885,15,10,m
11028.52641,80,1,9.5,6.88237,8.5,12,33,0,m
261.277604,60,1,9.1,7,8.8,8.530885,30,10,l
76.703627,50,3,7,6.88237,7.2,11,40,19,l
1252.868112,88,1,7.7,6.5,7.5,8.530885,14,0,s
11562.72899,82,1,8.2,6.88237,8.009683,9,47,0,s
1691.872018,60,1,9.1,7,8.8,8.530885,30,14,l
40.7187,82,1,6.4,6.88237,6.4,8.530885,30,17,s
140.482887,85,1,8.2,6.88237,8.009683,6,7,0,m
255.628461,85,1,9.1,7.2,8.3,8.530885,29,9,l
217.383357,85,1,7,6.88237,8.009683,8.530885,50,80,s
28.535388,85,1,6.7,6.1,6.8,5,8,4,s
59.957459,82,3,7,5.8,7.1,8.530885,25,11,l
2725.499726,85,3,7.6,6.88237,7.3,8.530885,10,647,s
130.728038,85,1,9.1,7.2,8.3,8.530885,29,6,l
69.808203,83,3,7.5,6.88237,8.009683,9,20,10,s
302.893267,81,1,8.1,7.1,8.1,8.530885,18,0,m
5229.513738,80,1,7.2,7.2,7.2,4,65,11,s
16969.22114,85,1,9.5,6.88237,8.5,12,33,0,l
467.50348,85,1,8.2,6.88237,8.009683,6,7,0,m
96.900785,50,3,7.7,6.88237,7.8,9,20,8,m
1799.352808,60,1,9.1,7,8.8,8.530885,30,8,s
157.713947,82,1,7.8,6.88237,7.9,8.530885,35,57,m
383.564864,86,1,7.9,6.88237,7.2,8.530885,28,27,s
489.50274,85,1,8.1,6.88237,8.3,9,45,45,s
4120.541234,80,1,7.7,6.5,7.5,8.530885,14,0,s
13876.5071,89,1,8.1,7.3,8.2,8.530885,10,0,s
262.137931,60,1,9.1,7,8.8,8.530885,30,4,l
8466.683306,88,1,8.3,6.88237,8.009683,9,22,5,s
83.183182,89,1,8,6.7,7.9,8,39,13,m
15654.88662,86,1,9.5,6.88237,8.5,12,33,0,l
504.580594,85,1,9.1,7.2,8.3,8.530885,29,5,m
2725.499726,85,1,8.3,6.88237,8.1,8.530885,15,647,m
2725.499726,85,1,8.3,6.88237,8.1,8.530885,15,647,m
3598.037913,80,3,8.6,6.88237,7.3,6,15,9,m
139.439832,85,1,8.3,6.9,8.1,8.530885,27,5,s
200.350803,85,1,9.1,7.2,8.3,8.530885,29,11,l
51.0983,85,3,7.5,6.9,7.2,9,10,6,l
559.15193,60,1,9.1,7,8.8,8.530885,30,0,m
446.153996,74,1,7.3,6.88237,8.009683,10,33,12,s
2057.834093,85,1,9,6.88237,8.5,7,22,27,m
3552.051609,80,3,8.6,6.88237,7.3,6,15,0,l
10112.02661,88,1,8.8,7,8,8,35,0,s
2725.499726,86,1,7.2,6.3,7.2,8,27,647,m
181.61178,89,1,8.3,6.88237,8.009683,9,22,15,m
86.417965,89,1,8.4,6.7,8.2,8,33,32,m
2327.853812,85,1,7.5,6.5,7.5,4,11,100,s
149.80893,85,1,9.1,7.2,8.3,8.530885,29,10,l
2253.304269,81,1,7.9,6.5,7.6,7,89,18,s
1562.880656,80,3,7.7,6,7.2,9,2,3,s
205.590035,85,1,9.1,7.2,8.3,8.530885,29,7,l
48.145621,85,1,7.5,6.88237,8.009683,5,40,7,m
18201.8538,85,1,8.3,6.88237,8.009683,9,22,24,s
32.01758,84,1,7.6,6.88237,8.009683,7,32,0,s
167.244685,81,1,8.1,7.1,8.1,8.530885,18,5,l
2725.499726,85,1,7.9,6.88237,7.9,8.530885,35,647,m
116.861613,88,1,7.3,6.88237,8.009683,8.530885,28,5,l
929.246279,85,1,7.7,6.5,7.7,8,48,0,s
2057.834093,85,1,9,6.88237,8.5,7,22,27,m
96.847202,85,1,9.1,7.2,8.3,8.530885,29,8,m
181.62442,89,1,8.3,6.88237,8.009683,9,22,15,m
200.845029,85,1,7.4,6.3,7.2,10,56,7,s
22.761731,85,3,7.5,6.9,7.2,9,10,8,m
16936.29572,85,1,8.3,6.88237,8.009683,9,22,0,s
83.473822,85,1,8.1,6.88237,8,8.530885,30,10,l
177.654173,74,1,6.4,6.88237,8.009683,8,10,4,s
650.77013,60,1,9.1,7,8.8,8.530885,30,4,l
3651.997457,80,3,8.6,6.88237,7.3,6,15,98,l
6852.695675,88,1,8.2,6.88237,8.009683,6,7,4,s
450.25583,85,1,9.1,7.2,8.3,8.530885,29,6,l
259.690243,60,1,9.1,7,8.8,8.530885,30,8,m
2495.348507,60,1,9.1,7,8.8,8.530885,30,0,m
1434.227288,88,1,7.9,6.88237,8.009683,4,14,12,s
367.78259,60,1,7.7,6.1,7.2,8.530885,20,9,s
3966.815227,88,3,7.7,6,7.2,9,2,0,s
3951.799942,89,1,8,6.6,7.3,7,46,0,s
3482.034809,80,3,8.6,6.88237,7.3,6,15,0,m
3769.356294,88,1,8.6,6.88237,9.1,8.530885,33,9,s
53.274345,85,1,7.5,6.88237,7.5,7,30,30,s
7061.896186,73,1,8.3,6.88237,8.6,12,25,0,s
6111.739115,80,1,8.3,6.88237,7.6,8.530885,26.742663,0,l
11372.67047,82,1,8.2,6.88237,8.009683,9,47,0,s
19.552661,84,1,7.1,6.1,7.1,8.530885,32,10,m
104.109853,85,1,9.1,7.2,8.3,8.530885,29,11,s
200.804558,60,1,7.7,6.1,7.2,8.530885,20,7,l
510.575464,82,1,7.6,6.5,7.8,8.530885,13,0,s
261.350441,85,1,8.4,6.88237,8.5,8.530885,15,0,s
830.555733,82,1,7.8,6.88237,8.009683,8,40,0,s
182.355525,89,1,8.3,6.88237,8.009683,9,22,15,m
4.028585,81,3,7.2,6.6,7.5,8.530885,28,0,m
132.918217,85,1,9.1,7.2,8.3,8.530885,29,8,m
141.153327,89,1,8.8,7.2,8.5,9,22,21,l
3129.297952,85,1,8.5,7.7,8.1,9,13,24,s
3515.61513,80,3,8.6,6.88237,7.3,6,15,9,m
248.099954,85,1,9.1,7.2,8.3,8.530885,29,9,l
121.322445,85,1,9.1,7.2,8.3,8.530885,29,9,m
6313.389495,80,1,9.1,7.2,8.3,8.530885,29,13,m
99.326249,85,1,9.1,7.2,8.3,8.530885,29,9,l
363.923543,85,1,8.4,6.88237,8.5,8.530885,15,0,m
15815.4193,89,1,9.1,7,8.8,8.530885,30,0,s
495.407144,85,1,7.6,6.88237,7.3,8.530885,74,67,s
258.037058,85,1,9.1,7.2,8.3,8.530885,29,6,m
299.19255,85,1,9.1,7.2,8.3,8.530885,29,11,m
463.190681,85,1,9.1,7.2,8.3,8.530885,29,13,m
569.417774,60,1,9.1,7,8.8,8.530885,30,8,l
10834.32954,80,1,9.5,6.88237,8.5,12,33,0,m
46.036679,60,1,7.8,6.5,7.3,8.530885,20,8,m
79.051716,85,1,9.1,7.2,8.3,8.530885,29,15,l
244.448476,85,1,8.3,6.88237,8.1,8.530885,15,166,m
88.402073,85,1,8.3,6.88237,8.1,8.530885,15,9,m
683.466187,85,1,7.8,6.8,7.7,8,24,77,m
810.285641,85,1,9.1,7.2,8.3,8.530885,29,4,s
105.547196,85,1,9.1,7.2,8.3,8.530885,29,11,l
5311.332568,88,1,8.7,7.7,7.8,6,30,0,s
125.648029,85,1,9.1,7.2,8.3,8.530885,29,9,l
100.566126,85,1,9.1,7.2,8.3,8.530885,29,11,l
10.303218,85,3,7.5,6.9,7.2,9,10,7,m
4859.276057,80,1,7.8,6.3,7.6,7,33,0,s
117.904703,85,1,8.3,6.88237,8.1,8.530885,15,83,m
161.935406,86,1,8.3,6.5,7.8,8.530885,10,0,l
5753.763973,88,1,8.3,6.5,7.8,8.530885,10,12,s
124.825717,85,1,9.1,7.2,8.3,8.530885,29,9,l
257.148573,89,1,8.8,7.2,8.5,9,22,6,l
480.414838,85,1,9.1,7.2,8.3,8.530885,29,5,m
181.387642,89,1,8.3,6.88237,8.009683,9,22,23,l
113.296875,85,1,9.1,7.2,8.3,8.530885,29,14,l
74.613933,83,1,7.6,6.5,7.7,8.530885,10,0,s
64.784944,89,1,8,6.7,7.9,8,39,8,l
130.075134,85,1,8.3,6.88237,8.1,8.530885,15,0,m
569.479608,50,3,7,6.88237,7.2,11,40,0,s
8166.454031,88,1,8.1,6.88237,8.3,9,45,0,s
258.779186,40,1,7.8,6.88237,7.8,12,20,10,s
2725.499726,85,1,7.6,6.88237,7.3,8.530885,74,647,s
6308.55591,80,1,9.1,7.2,8.3,8.530885,29,5,m
5714.64213,85,3,9.2,6.88237,8.4,10,25,0,s
13546.31128,85,1,8.1,6.4,7.7,9,23,0,s
1551.914257,81,1,8.1,6.88237,8.009683,9,19,23.263212,s
5910.772696,80,1,7.6,7,7.8,8.530885,17,11,s
133.624281,60,1,7.8,6.5,7.3,8.530885,20,16,m
400.741829,85,1,9.1,7.2,8.3,8.530885,29,3,m
4968.067874,80,1,8.8,7,8,8,35,5,s
272.438174,89,1,8.8,7.2,8.5,9,22,17,l
11178.03068,80,1,9.5,6.88237,8.5,12,33,0,m
261.955067,60,1,9.1,7,8.8,8.530885,30,11,l
110.146179,85,1,7.6,6.88237,8.009683,8.530885,60,0,s
4954.766631,80,1,9,6.88237,8.5,7,22,0,l
110.451462,85,1,8.1,6.88237,8,8.530885,30,0,m
4972.683656,80,1,9,6.88237,8.5,7,22,0,m
195.331367,81,1,8.1,7.1,8.1,8.530885,18,22,m
564.119631,60,1,8.6,7.4,8.5,8.530885,20,0,s
292.676036,85,1,9.1,7.2,8.3,8.530885,29,10,m
587.477087,85,1,9.1,7.2,8.3,8.530885,29,6,s
4858.552284,88,1,8.8,7,8,8,35,23.263212,s
114.944878,85,1,9.1,7.2,8.3,8.530885,29,14,l
162.818145,60,1,8.4,6.9,8.5,8.530885,34,0,m
190.683296,85,1,9.1,7.2,8.3,8.530885,29,9,l
238.061431,89,1,8.3,6.88237,8.009683,9,22,12,m
615.065777,85,1,7.1,6.3,7.1,8,50,0,s
265.933324,85,1,9.1,7.2,8.3,8.530885,29,9,s
403.860514,85,1,9.1,7.2,8.3,8.530885,29,3,s
97.745499,85,1,9.1,7.2,8.3,8.530885,29,11,l
8776.052153,81,1,9.5,6.88237,8.5,12,33,43,m
2883.466295,85,1,8.8,7,8,8,35,14,s
50.379362,83,3,7.5,6.88237,8.009683,9,20,0,s
17423.56124,71,1,8.8,7,8,8,35,8,s
3927.64243,88,3,9.2,6.88237,8.4,10,25,5,s
92.543466,85,3,7.5,6.9,7.2,9,10,18,l
3645.598159,80,1,8.6,6.88237,9.1,8.530885,33,0,l
7458.109263,88,1,7.9,6.88237,7.9,8.530885,35,12,s
10919.32475,80,1,8.3,6.88237,8.009683,9,22,6,s
7579.039039,88,1,8,6.7,7.9,8,39,0,s
98.355016,85,1,8.3,6.9,8.1,8.530885,27,8,m
2107.405387,60,1,9.1,7,8.8,8.530885,30,4,m
170.146161,60,1,8.4,6.9,8.5,8.530885,34,0,m
105.353258,85,1,9.1,7.2,8.3,8.530885,29,7,l
182.340197,89,1,8.3,6.88237,8.009683,9,22,14,m
417.067065,87,1,8.7,7.7,7.8,6,30,0,m
767.276677,87,1,8.2,6.88237,8.009683,8,32,0,s
3597.299547,80,3,8.6,6.88237,7.3,6,15,0,s
37.183804,50,3,7.7,6.88237,7.8,9,20,6,l
223.824188,85,1,6.7,6.88237,6.7,8.530885,20,0,s
331.834544,85,1,7.9,6.6,7.9,5,33,0,s
241.145431,85,1,7.2,6.2,6.8,8.530885,37,17,s
3852.425121,87,1,8.3,6.9,8.1,8.530885,27,0,s
11181.99165,80,1,9.5,6.88237,8.5,12,33,10,m
10638.20722,80,1,9.5,6.88237,8.5,12,33,12,m
3079.745459,85,1,7.4,6.3,7.4,6,73,8,s
51.682313,50,3,6.1,5.5,8.009683,8.530885,18,0,s
1230.132061,85,1,7,5.8,7,8.530885,15,6,s
17068.65198,85,1,9.5,6.88237,8.5,12,33,4,s
4749.881681,60,1,9.1,7,8.8,8.530885,30,6,m
133.48504,85,1,9.1,7.2,8.3,8.530885,29,8,l
9665.397923,81,1,9.5,6.88237,8.5,12,33,0,s
110.073904,85,1,9.1,7.2,8.3,8.530885,29,7,m
6107.957024,88,1,8.8,7,8,8,35,0,s
6249.639574,80,1,9.1,7.2,8.3,8.530885,29,16,m
265.659015,85,1,9.1,7.2,8.3,8.530885,29,11,m
96.827782,85,1,9.1,7.2,8.3,8.530885,29,5,l
5109.691845,88,1,8.1,7.3,8.2,8.530885,10,0,s
956.591166,50,3,7.7,6.88237,7.8,9,20,23,s
107.834338,85,1,9.1,7.2,8.3,8.530885,29,6,l
10836.29773,80,1,9.5,6.88237,8.5,12,33,18,m
181.509421,89,1,8.3,6.88237,8.009683,9,22,19,m
257.60819,85,1,9.1,7.2,8.3,8.530885,29,8,m
261.877946,60,1,9.1,7,8.8,8.530885,30,0,l
207.884429,86,1,7.5,6.4,7.3,8.530885,71,12,s
74.25902,60,1,7.8,6.5,7.3,8.530885,20,12,l
34.471848,85,1,7.9,6.88237,7.9,8.530885,35,12,m
1966.259088,60,1,7.7,6.1,7.2,8.530885,20,7,m
118.253135,88,1,7.6,5.4,7.7,8.530885,30,0,m
259.745856,85,1,7,6.88237,7,8.530885,34,95,s
164.935668,50,3,7.7,6.88237,7.8,9,20,55,m
9483.294635,88,1,7.9,6.4,7.4,8,24,0,s
89.027519,85,1,9.1,7.2,8.3,8.530885,29,7,m
879.572118,85,3,6.8,6.3,6.9,8.530885,20,67,s
5893.072139,88,1,9.5,6.88237,8.5,12,33,0,s
3813.863758,85,3,8.2,6.5,8.1,9,33,72,s
124.847367,85,1,9.1,7.2,8.3,8.530885,29,7,m
2107.680436,60,1,9.1,7,8.8,8.530885,30,3,m
568.329415,60,1,9.1,7,8.8,8.530885,30,16,l
140.121973,82,1,7.3,6.8,7.4,8.530885,16,25,m
1831.896372,60,1,9.1,7,8.8,8.530885,30,9,m
56.39405,85,1,8.1,6.88237,8.3,9,45,12,m
8400.056141,88,1,9.1,7.2,8.3,8.530885,29,7,m
144.040008,85,1,8.2,6.88237,8.009683,6,7,0,m
24.319783,50,1,7,6.88237,8.009683,8,21,6,m
248.693267,85,1,9.1,7.2,8.3,8.530885,29,11,l
5363.386666,81,1,8.3,6.5,7.8,8.530885,10,0,s
218.934808,85,1,8.3,6.9,8.1,8.530885,27,0,s
98.79173,85,1,8.3,6.9,8.1,8.530885,27,8,m
46.008532,80,4,6.9,6.88237,8.009683,7,6,11,s
3648.556263,80,1,8.6,6.88237,9.1,8.530885,33,0,m
552.635562,85,1,9.1,7.2,8.3,8.530885,29,0,s
93.438816,88,1,7.7,6.5,7.5,8.530885,14,39,m
17469.85518,85,1,9.5,6.88237,8.5,12,33,30,s
126.715971,85,1,9.1,7.2,8.3,8.530885,29,6,m
84.407786,74,3,7.1,6.88237,8.009683,9,15,9,s
72.188095,81,1,6.5,6.88237,8.009683,9,8,3,s
1829.490863,71,1,8.1,6.88237,8.009683,8.530885,48,0,s
133.436832,85,1,9.1,7.2,8.3,8.530885,29,6,l
17427.00066,89,1,9.1,7,8.8,8.530885,30,0,s
570.405316,85,1,9.1,7.2,8.3,8.530885,29,0,m
1699.778913,60,1,9.1,7,8.8,8.530885,30,12,l
201.679419,81,1,8.1,7.1,8.1,8.530885,18,16,l
6.213286,84,1,6.7,6.3,6.6,8,11,0,s
11148.95522,80,1,9.5,6.88237,8.5,12,33,28,m
555.51544,85,3,7.5,6.9,7.2,9,10,0,s
260.487572,85,1,8.4,6.88237,8.5,8.530885,15,11,m
96.394429,85,1,9.1,7.2,8.3,8.530885,29,7,m
261.559246,60,1,9.1,7,8.8,8.530885,30,13,l
438.006425,85,1,8.2,6.88237,7.8,9,30,0,s
223.269988,85,1,7.5,6.88237,8.009683,5,40,0,s
131.519195,85,1,9.1,7.2,8.3,8.530885,29,10,m
54.94987,85,1,8.3,6.88237,8.1,8.530885,15,0,m
3272.156952,80,1,8.3,6.5,7.8,8.530885,10,0,s
8850.148195,81,1,9.1,7.2,8.3,8.530885,29,3,s
1805.890577,88,1,7.6,6.88237,8.009683,8,33,0,s
116.20012,85,1,9.1,7.2,8.3,8.530885,29,26,l
286.908075,85,1,8.4,6.88237,8.5,8.530885,15,69,m
11003.88498,88,1,8.8,7.2,8.5,9,22,0,s
10107.12447,80,1,8.5,6.88237,8.5,11,25,0,l
1618.811661,60,1,9.1,7,8.8,8.530885,30,18,m
423.20272,85,1,8.3,6.88237,8.1,8.530885,15,24,m
98.978564,85,1,9.1,7.2,8.3,8.530885,29,6,m
829.082296,85,1,8.5,7.7,8.1,9,13,0,s
334.239061,85,1,8.2,6.88237,8.009683,6,7,17,s
88.884286,85,1,9.1,7.2,8.3,8.530885,29,8,s
122.210254,85,1,9.1,7.2,8.3,8.530885,29,8,m
143.98242,85,1,7.5,6.88237,8.009683,5,40,15,s
2108.001768,60,1,9.1,7,8.8,8.530885,30,2,m
194.379355,85,1,9.1,7.2,8.3,8.530885,29,11,l
30.317263,50,1,7,6.88237,8.009683,8,21,6,m
88.974248,60,1,7.5,6.5,7.3,8.530885,10,11,m
1378.090309,82,1,6.8,6.4,6.8,6,33,17,s
182.139657,89,1,8.3,6.88237,8.009683,9,22,17,l
43.993918,85,1,7.1,6.4,6.9,8.530885,28,0,m
2531.403129,88,1,7.7,6.5,7.5,8.530885,14,8,s
1314.274143,81,1,7.4,6.3,7.4,6,73,0,s
123.6393,85,1,9.1,7.2,8.3,8.530885,29,10,l
16997.16186,85,1,9.5,6.88237,8.5,12,33,0,l
13208.11414,89,1,9.1,7.2,8.3,8.530885,29,5,m
108.185223,85,1,9.1,7.2,8.3,8.530885,29,13,l
74.701552,85,1,8.1,6.88237,8,8.530885,30,0,l
96.165545,85,1,9.1,7.2,8.3,8.530885,29,6,l
94.152722,85,1,9.1,7.2,8.3,8.530885,29,0,l
108.01372,85,1,9.1,7.2,8.3,8.530885,29,5,m
712.557657,85,1,7.4,6.3,7.2,10,56,0,s
748.521692,85,1,7.8,6.8,7.7,8,24,115,s
4539.831374,60,1,9.1,7,8.8,8.530885,30,12,m
615.091766,83,3,7.8,6.88237,7.8,8.530885,26.742663,5,l
3513.175116,80,3,8.6,6.88237,7.3,6,15,7,m
129.042006,85,1,8.3,6.88237,8.1,8.530885,15,209,m
4415.015903,85,1,8.7,7.7,7.8,6,30,0,s
146.77165,85,1,8.2,6.88237,8.009683,6,7,5,m
133.334645,89,1,8.8,7.2,8.5,9,22,8,l
773.165318,86,3,7.5,6.9,7.2,9,10,0,s
246.424774,85,1,7.7,6.6,7.6,8,17,26,s
132.326027,85,1,9.1,7.2,8.3,8.530885,29,9,m
1047.71339,85,1,8.3,7.3,8.1,9,14,0,s
2104.950192,82,1,8.1,7.1,8.1,8.530885,18,0,s
64.568571,85,3,7.5,6.9,7.2,9,10,9,m
105.482758,85,1,9.1,7.2,8.3,8.530885,29,7,m
6011.163474,80,1,8.1,6.88237,8.009683,9,19,10,s
1691.82324,60,1,9.1,7,8.8,8.530885,30,10,l
13803.66959,85,1,8.8,8.2,8.6,9,20,0,s
590.377035,60,1,8.5,6.88237,8.5,9,70,0,m
34.685951,85,1,6.3,6.88237,8.009683,8.530885,20,15,s
48.023278,86,1,8.3,7.3,8.1,9,14,0,m
319.497826,81,1,7.6,6.8,7.6,6,33,0,s
474.044746,86,1,7,6.3,7,5,41,0,s
323.559769,85,1,9.1,7.2,8.3,8.530885,29,8,m
17418.94902,85,1,8.3,6.88237,8.009683,9,22,0,s
258.569496,85,1,9.1,7.2,8.3,8.530885,29,0,m
16.890521,85,1,6.7,6,6.5,9,2,0,s
115.072536,85,1,9.1,7.2,8.3,8.530885,29,12,m
122.513091,85,1,9.1,7.2,8.3,8.530885,29,7,m
3546.251452,80,1,8.6,6.88237,9.1,8.530885,33,26,m
252.12398,89,1,8.8,7.2,8.5,9,22,12,l
205.986537,85,1,9.1,7.2,8.3,8.530885,29,7,m
204.552767,81,1,8.1,7.1,8.1,8.530885,18,17,m
51.754304,60,1,7.8,6.5,7.3,8.530885,20,17,m
133.234565,89,1,8.2,6.88237,8.009683,8,25,6,m
233.046365,89,1,8.3,6.88237,8.009683,9,22,13,m
255.620585,85,1,9.1,7.2,8.3,8.530885,29,8,l
168.408971,85,1,8.3,6.9,8.1,8.530885,27,3,m
883.35839,82,1,7.7,6.88237,8.009683,7,10,0,s
14614.30556,71,1,9.1,7,8.8,8.530885,30,0,s
11179.61358,80,1,9.5,6.88237,8.5,12,33,0,m
9455.938302,88,1,8.2,6.88237,8.009683,8,25,51,s
302.744236,81,1,8.1,7.1,8.1,8.530885,18,11,l
498.414416,85,1,6.9,6.88237,8.009683,8.530885,60,10,s
127.788811,85,1,8.2,6.88237,8.009683,6,7,0,m
2080.176329,88,1,7.9,6.88237,8.009683,4,14,23.263212,s
9760.534678,81,1,9.1,7.2,8.3,8.530885,29,4,s
63.439444,80,4,6.9,6.88237,8.009683,7,6,9,s
186.018901,89,1,8.3,6.88237,8.009683,9,22,16,m
465.966694,85,1,9.1,7.2,8.3,8.530885,29,7,l
10842.10637,80,1,9.5,6.88237,8.5,12,33,0,l
5988.58476,85,1,7.9,5.8,7.9,8.530885,33,4,s
11172.16613,80,1,9.5,6.88237,8.5,12,33,0,m
5579.821152,88,1,8.3,6.88237,8.009683,9,22,8,s
10793.13886,80,1,9.5,6.88237,8.5,12,33,27,m
240.090462,85,1,8.4,6.88237,8.5,8.530885,15,0,l
234.41465,85,1,7.2,6.2,6.8,8.530885,37,69,s
243.19802,89,1,8.3,6.88237,8.009683,9,22,7,m
163.495184,85,1,7,5.8,7,8.530885,15,11,s
155.57107,85,1,9.1,7.2,8.3,8.530885,29,15,l
177.189561,85,1,7.5,6.88237,7.5,9,10,8,m
2299.022987,88,1,7.9,6.88237,8.009683,4,14,0,s
522.155176,50,3,7.1,6.5,7.7,10,10,0,s
290.985527,89,1,8.8,7.2,8.5,9,22,9,m
110.733242,88,1,8,6.8,8.1,9,28,6,m
130.166416,85,1,9.1,7.2,8.3,8.530885,29,15,l
2633.874342,85,1,8.7,7.7,7.8,6,30,0,s
1403.545408,87,1,8.2,6.88237,8.009683,8,32,5,s
301.459608,85,1,8.1,6.88237,8.3,9,45,0,m
9373.765412,81,1,9.1,7,8.8,8.530885,30,3,s
27.8591,50,1,7,6.88237,8.009683,8,21,9,s
59.958728,82,1,7.6,6.5,7.8,8.530885,13,14,m
2107.444924,60,1,9.1,7,8.8,8.530885,30,3,m
191.231108,85,1,6.7,6,6.7,4,43,6,s
155.849818,85,1,8.3,6.9,8.1,8.530885,27,8,s
123.215783,85,1,9.1,7.2,8.3,8.530885,29,7,l
438.928136,85,1,7,6.3,6.7,6,46,67,s
9565.367353,81,1,9.1,7.2,8.3,8.530885,29,10,s
205.735935,82,1,8.1,6.8,7.9,8.530885,24,0,m
6625.530904,81,1,8.3,6.5,7.8,8.530885,10,0,s
125.446051,85,1,9.1,7.2,8.3,8.530885,29,9,m
181.508553,89,1,8.3,6.88237,8.009683,9,22,17,m
69.585809,83,3,7.5,6.88237,8.009683,9,20,10,s
171.276639,85,1,7,6.6,7,8.530885,23,0,s
2922.147702,85,1,8.8,7,8,8,35,58,s
20.809151,84,1,7.3,6.88237,7.3,8.530885,21,0,s
977.411772,81,1,7.5,6.5,7.5,4,11,0,s
2725.499726,60,1,9.1,7,8.8,8.530885,30,647,m
51.938542,83,3,7.5,6.88237,8.009683,9,20,0,s
27.437631,50,1,7,6.88237,8.009683,8,21,7,m
6824.480405,85,1,8.1,7.1,8.1,8.530885,18,0,s
206.256025,85,1,9.1,7.2,8.3,8.530885,29,7,l
17105.30198,85,1,9.5,6.88237,8.5,12,33,9,m
969.470033,85,1,7.5,6.88237,8.009683,5,40,12,s
55.856109,82,1,7.6,6.5,7.8,8.530885,13,8,m
6550.060707,89,1,8.1,6.88237,8.009683,9,19,0,s
255.612135,85,1,9.1,7.2,8.3,8.530885,29,7,l
72.411767,60,1,7.8,6.5,7.3,8.530885,20,6,l
185.695592,81,1,8.1,7.1,8.1,8.530885,18,6,l
17057.6374,85,1,9.5,6.88237,8.5,12,33,6,m
224.465925,85,1,8.4,6.88237,8.5,8.530885,15,0,l
203.957148,85,1,8.1,6.88237,8,8.530885,30,11,m
237.600046,85,1,7.2,6.2,6.8,8.530885,37,0,s
181.337827,89,1,8.3,6.88237,8.009683,9,22,10,s
192.764391,81,1,8.1,7.1,8.1,8.530885,18,12,l
88.230759,85,1,9.1,7.2,8.3,8.530885,29,9,l
70.530917,85,1,6.7,6.1,6.3,8.530885,48,0,s
17657.52374,85,1,9.5,6.88237,8.5,12,33,9,m
388.164607,85,1,8.3,6.88237,8.3,8.530885,26.742663,0,s
54.257729,89,1,7.7,6.88237,8.009683,8,22,0,s
4550.717486,60,1,9.1,7,8.8,8.530885,30,0,s
3805.412492,80,3,8.6,6.88237,7.3,6,15,0,l
4707.971921,60,1,9.1,7,8.8,8.530885,30,7,s
153.572521,85,1,9.1,7.2,8.3,8.530885,29,8,m
284.973659,85,1,9.1,7.2,8.3,8.530885,29,9,l
153.221483,89,1,8.8,7.2,8.5,9,22,30,l
38.516998,60,1,7.8,6.5,7.3,8.530885,20,0,s
3558.251972,80,3,8.6,6.88237,7.3,6,15,0,m
181.363623,89,1,8.3,6.88237,8.009683,9,22,16,s
18.554957,85,1,7.7,6.5,7.7,8,48,0,s
269.831132,82,1,7.5,6.88237,8.009683,8.530885,10,14,m
5916.660294,60,1,9.1,7,8.8,8.530885,30,3,m
143.440326,74,1,6.4,6.88237,8.009683,8,10,0,s
6173.730824,80,1,7.6,6.6,7.5,8.530885,17,0,s
5309.789146,80,1,9,6.88237,8.5,7,22,0,m
4503.278567,81,1,8.1,6.88237,8.009683,9,19,10,s
1040.54314,60,1,8.2,6.88237,7.8,8.530885,50,4,s
164.630526,81,1,7.4,6.4,7.5,8.530885,33,8,s
494.604309,85,1,7.7,6.8,7.7,8,44,5,s
16800.01853,89,1,9.1,7.2,8.3,8.530885,29,0,m
18.853093,82,1,7.1,6.4,7.1,8.530885,25,19,l
129.801238,85,1,9.1,7.2,8.3,8.530885,29,8,l
176.365621,85,1,9.1,7.2,8.3,8.530885,29,11,l
153.649415,85,1,8.3,6.9,8.1,8.530885,27,0,m
437.215237,85,1,9.1,7.2,8.3,8.530885,29,6,s
31.006686,80,3,7.7,6,7.2,9,2,11,m
182.265016,89,1,8.3,6.88237,8.009683,9,22,7,m
82.399225,83,3,8.2,6.5,8.1,9,33,17,s
2497.160628,85,1,7.6,6.88237,8.009683,7,32,138,s
67.313313,83,3,7.5,6.88237,8.009683,9,20,0,l
158.343365,85,1,8.2,6.88237,8.009683,6,7,7,m
9471.723908,88,1,9.5,6.88237,8.5,12,33,5,s
3699.491711,88,3,9.2,6.88237,8.4,10,25,5,s
448.509101,87,1,7.8,6.8,7.6,5,15,5,s
17056.85449,85,1,9.5,6.88237,8.5,12,33,0,s
417.876246,85,1,9.1,7.2,8.3,8.530885,29,7,m
267.697647,60,1,9.1,7,8.8,8.530885,30,14,l
482.580222,85,1,8.3,7.3,8.1,9,14,0,s
2725.499726,85,5,6.4,6.88237,6.4,8.530885,26.742663,647,l
149.796553,85,1,9.1,7.2,8.3,8.530885,29,11,l
15942.53413,86,1,9.5,6.88237,8.5,12,33,320,l
495.456989,60,1,7.7,6.1,7.2,8.530885,20,16,m
530.79512,60,1,7.7,6.1,7.2,8.530885,20,0,m
267.375916,85,1,9.1,7.2,8.3,8.530885,29,10,l
31.123782,50,1,7,6.88237,8.009683,8,21,6,m
5898.897803,60,1,9.1,7,8.8,8.530885,30,6,m
9357.973839,81,1,9.1,7.2,8.3,8.530885,29,24,s
9126.32853,89,1,8.1,7.1,8.1,8.530885,18,15,s
13022.832,80,1,8.8,7.2,8.5,9,22,0,s
87.994811,85,1,9.1,7.2,8.3,8.530885,29,8,m
4036.162661,88,3,7.7,6,7.2,9,2,5,s
15820.86762,86,1,8.8,7.2,8.5,9,22,7,s
87.743172,87,1,7.3,6.88237,8.009683,8.530885,20,15,s
74.171235,85,1,8.1,6.88237,8,8.530885,30,18,m
134.426897,85,1,9.1,7.2,8.3,8.530885,29,7,m
3788.563093,80,1,8.6,6.88237,9.1,8.530885,33,29,m
40.389699,89,1,8.3,6.88237,8.009683,9,22,14,m
253.811395,85,1,7.5,6.4,7.3,8.530885,33,6,s
387.183494,85,1,5.7,6.88237,8.009683,8.530885,10,0,s
1442.000843,81,1,7.7,6.4,7.9,8.530885,33,0,s
146.808779,89,1,8.3,6.88237,8.009683,9,22,12,m
181.576903,89,1,8.3,6.88237,8.009683,9,22,13,m
62.728926,83,3,7.5,6.88237,8.009683,9,20,23,l
194.287935,85,1,9.1,7.2,8.3,8.530885,29,15,l
72.727869,60,1,7.8,6.5,7.3,8.530885,20,16,l
4586.092067,60,1,9.1,7,8.8,8.530885,30,0,m
83.89292,81,1,8,6.88237,8,8.530885,33,0,m
6323.101296,88,3,7.7,6,7.2,9,2,0,s
450.16003,85,1,9.1,7.2,8.3,8.530885,29,0,s
93.417385,88,1,7.7,6.5,7.5,8.530885,14,31,m
53.660464,88,1,7.7,6.5,7.5,8.530885,14,22,m
18.651933,82,1,7.1,6.4,7.1,8.530885,25,17,l
124.651701,85,1,9.1,7.2,8.3,8.530885,29,7,l
7886.95547,88,1,8.1,7.1,8.1,8.530885,18,0,s
700.552624,86,1,9.1,7.2,8.3,8.530885,29,27,s
124.673385,88,1,7.7,6.5,7.5,8.530885,14,17,l
51.045328,85,3,7.5,6.9,7.2,9,10,7,l
173.331508,85,1,8.3,6.88237,8.1,8.530885,15,0,s
257.716081,85,1,9.1,7.2,8.3,8.530885,29,5,m
3844.461418,88,3,8.6,6.88237,7.3,6,15,33,s
2725.499726,85,5,6.4,6.88237,6.4,8.530885,26.742663,647,l
181.3636,81,1,8.1,7.1,8.1,8.530885,18,19,l
699.212614,74,1,8.30368,6.88237,8.009683,8,26.742663,0,s
810.602943,85,1,8.5,7.7,8.1,9,13,0,s
272.025974,85,1,9.1,7.2,8.3,8.530885,29,7,l
180.787586,81,1,8.1,7.1,8.1,8.530885,18,42,l
94.037197,85,1,9.1,7.2,8.3,8.530885,29,11,l
260.83758,85,1,8.2,6.88237,8.009683,6,7,20,s
96.665993,85,1,9.1,7.2,8.3,8.530885,29,11,s
352.105896,85,1,6.9,6.88237,6.9,8.530885,30,0,s
17480.51007,85,1,9.5,6.88237,8.5,12,33,84,s
644.055696,85,1,8.2,6.88237,7.8,9,30,145,s
6988.129201,80,1,7.5,6.88237,7.1,8,65,0,s
117.64191,85,1,9.1,7.2,8.3,8.530885,29,11,s
183.465028,89,1,8.3,6.88237,8.009683,9,22,8,s
14309.90522,88,1,8.1,6.88237,8.009683,8.530885,48,0,s
210.987816,85,1,8.2,6.88237,8.009683,6,7,6,m
53.301675,82,3,7,5.8,7.1,8.530885,25,9,l
406.920913,86,1,9,6.88237,8.5,7,22,8,l
98.722774,85,1,9.1,7.2,8.3,8.530885,29,15,l
9545.706868,81,1,9.1,7.2,8.3,8.530885,29,26,m
124.642624,85,1,9.1,7.2,8.3,8.530885,29,12,m
116.110523,85,1,8.1,6.88237,8,8.530885,30,57,l
171.163996,86,1,7.1,6.3,7.1,9,9,7,s
3482.554912,85,1,7.6,6.88237,7.6,8.530885,25,91,s
1840.616891,60,1,9.1,7,8.8,8.530885,30,8,m
99.57591,85,1,9.1,7.2,8.3,8.530885,29,6,m
7240.686842,81,3,8.6,6.88237,7.3,6,15,0,m
3.731897,88,1,7.7,6.5,7.5,8.530885,14,13,l
91.031358,86,1,8.2,6.88237,7.8,9,30,22,m
63.713102,85,3,7.5,6.9,7.2,9,10,5,m
2182.673793,87,1,8.1,7.3,8.2,8.530885,10,8,s
580.845993,60,1,9.1,7,8.8,8.530885,30,16,l
1711.458813,60,1,9.1,7,8.8,8.530885,30,12,l
190.977294,85,1,8,6.88237,8,5,26.742663,0,m
2203.847798,87,1,7.3,6.88237,7.3,8.530885,40,0,s
30.187738,50,1,7,6.88237,8.009683,8,21,7,s
17662.18026,85,1,9.5,6.88237,8.5,12,33,23,s
198.108893,81,1,7,6.88237,8.009683,8,22,8,s
1550.352386,89,1,8.2,6.88237,8.009683,8,25,0,s
17.271509,84,1,7.1,6.1,7.1,8.530885,32,0,m
126.875672,85,1,8.3,6.88237,8.1,8.530885,15,90,m
37.677777,85,1,6,6.88237,6,8.530885,36,0,s
17.404519,82,1,6.1,6.88237,8.009683,8.530885,25,8,l
9295.957623,88,1,9.5,6.88237,8.5,12,33,5,m
3592.954184,60,1,9.1,7,8.8,8.530885,30,5,s
3837.960844,84,1,9.1,7.2,8.3,8.530885,29,0,s
1963.330757,60,1,9.1,7,8.8,8.530885,30,6,l
2138.470233,60,1,9.1,7,8.8,8.530885,30,0,m
105.676,85,1,7.5,6.88237,8.009683,5,40,4,s
5796.316581,80,1,9.1,7.2,8.3,8.530885,29,0,m
477.801162,85,1,9.1,7.2,8.3,8.530885,29,0,m
140.800847,85,1,8.3,6.88237,8.1,8.530885,15,58,m
118.233999,85,1,9.1,7.2,8.3,8.530885,29,6,m
181.237055,89,1,8.3,6.88237,8.009683,9,22,27,l
93.984076,85,1,9.1,7.2,8.3,8.530885,29,0,l
127.02687,82,3,7,5.8,7.1,8.530885,25,18,m
127.135225,85,1,9.1,7.2,8.3,8.530885,29,5,l
360.510288,60,1,7.8,7,7.9,8.530885,31,0,s
2504.74591,60,1,9.1,7,8.8,8.530885,30,13,m
66.702946,60,1,7.4,6.88237,7.4,8,26.742663,64,s
263.085097,60,1,9.1,7,8.8,8.530885,30,6,l
1868.47788,81,1,7.7,6.88237,8.009683,7,10,23.263212,s
61.083206,83,3,7.5,6.88237,8.009683,9,20,12,l
3992.820705,80,1,8.6,6.88237,9.1,8.530885,33,20,m
7391.187455,81,1,8.8,7.2,8.5,9,22,11,m
1956.661171,60,1,9.1,7,8.8,8.530885,30,11,l
236.173376,85,1,7.7,6.88237,7.7,8.530885,26.742663,0,s
10479.87194,87,1,8.1,6.88237,8.009683,9,19,14,s
270.511434,85,1,8.4,6.88237,8.5,8.530885,15,33,l
3240.285492,60,1,8.4,6.9,8.5,8.530885,34,0,s
232.491229,85,1,7.9,6.88237,7.9,8.530885,35,0,m
121.79935,85,1,9.1,7.2,8.3,8.530885,29,11,l
566.985503,85,1,6.9,6.4,6.9,8.530885,33,0,s
15039.89269,89,1,8.8,7,8,8,35,42,s
1237.788356,89,1,8.1,6.88237,7.5,9,38,8,s
445.711019,74,1,7.3,6.88237,8.009683,10,33,0,s
138.309369,85,1,9.1,7.2,8.3,8.530885,29,8,l
131.090063,85,1,9.1,7.2,8.3,8.530885,29,19,l
379.246775,85,1,8.4,6.88237,8.5,8.530885,15,21,s
10631.71547,88,1,8.8,7.2,8.5,9,22,7,s
6044.669707,80,1,8.4,6.88237,8.5,8.530885,15,0,m
4394.238418,60,1,8.6,7.2,8.4,8.530885,30,6,s
41.414464,83,3,7.5,6.88237,8.009683,9,20,16,m
181.514282,89,1,8.3,6.88237,8.009683,9,22,19,s
127.728478,60,1,7.8,6.5,7.3,8.530885,20,13,l
229.792829,85,1,9.1,7.2,8.3,8.530885,29,14,l
3657.616763,80,3,8.6,6.88237,7.3,6,15,12,l
71.877688,85,1,8.3,6.9,8.1,8.530885,27,8,m
181.420166,89,1,8.3,6.88237,8.009683,9,22,8,m
182.050926,60,1,7.7,6.1,7.2,8.530885,20,15,l
5040.744672,88,1,8.8,7,8,8,35,4,s
8879.352276,80,1,7.5,5.8,6.6,4,10,11,s
6183.71079,85,3,7.7,6,7.2,9,2,6,s
168.055132,81,1,8.1,7.1,8.1,8.530885,18,0,l
93.231361,85,1,9.1,7.2,8.3,8.530885,29,8,l
3145.348409,88,3,9.2,6.88237,8.4,10,25,32,m
418.679213,88,1,7.9,6.88237,7.9,7,25,0,s
324.627513,85,1,9.1,7.2,8.3,8.530885,29,6,l
261.842249,60,1,9.1,7,8.8,8.530885,30,0,l
259.311284,60,1,9.1,7,8.8,8.530885,30,6,l
32.114857,85,1,7.9,6.88237,7.9,8.530885,35,43,m
17015.57265,85,1,9.5,6.88237,8.5,12,33,0,m
263.038558,60,1,9.1,7,8.8,8.530885,30,8,l
10081.08378,81,1,9.1,7,8.8,8.530885,30,11,s
399.63252,85,1,8.2,6.88237,7.8,9,30,0,s
18671.33654,84,1,8,6.7,7.8,8,40,9,s
108.254963,85,1,9.1,7.2,8.3,8.530885,29,4,m
1257.637007,89,1,8.5,6.88237,8.5,11,25,0,l
35.088229,85,1,7,6.3,6.7,6,46,11,s
189.998117,81,1,7.7,7,7.7,6,25,0,s
1622.274329,60,1,9.1,7,8.8,8.530885,30,6,l
48.500464,83,3,7.5,6.88237,8.009683,9,20,10,m
234.269545,85,1,9.1,7.2,8.3,8.530885,29,10,l
46.78852,83,3,7.5,6.88237,8.009683,9,20,7,m
9.747113,82,1,7.1,6.4,7.1,8.530885,25,13,l
135.947973,85,1,9.1,7.2,8.3,8.530885,29,23,l
261.240332,60,1,9.1,7,8.8,8.530885,30,8,l
7358.057125,81,3,8.6,6.88237,7.3,6,15,4,l
3664.009309,80,3,8.6,6.88237,7.3,6,15,0,m
120.081164,85,1,9.1,7.2,8.3,8.530885,29,10,l
11.110575,50,1,6.6,6.88237,8.009683,7,7,0,s
3510.371453,80,3,8.6,6.88237,7.3,6,15,18,l
241.67819,85,1,7.8,6.8,7.7,8,24,0,m
4340.713434,89,1,8.8,7.2,8.5,9,22,15,s
106.548006,85,1,9.1,7.2,8.3,8.530885,29,12,m
120.168806,85,1,9.1,7.2,8.3,8.530885,29,7,m
69.489797,83,3,7.5,6.88237,8.009683,9,20,7,m
60.409214,89,1,6.7,5.8,6.7,7,14,62,s
83.439666,85,1,8.3,6.9,8.1,8.530885,27,4,m
3645.81522,80,1,7.9,6.6,7.6,6,33,0,s
4167.039706,89,1,8.8,7.2,8.5,9,22,8,s
6713.416921,80,1,7.5,6.88237,7.1,8,65,11,s
67.992862,85,1,7.9,6.88237,7.9,8.530885,35,75,l
807.367434,85,3,7.5,6.9,7.2,9,10,0,s
9.747605,50,1,6.6,6.88237,8.009683,7,7,5,s
4849.896761,60,1,9.1,7,8.8,8.530885,30,10,m
101.754381,74,3,7.1,6.88237,8.009683,9,15,78,m
1767.253477,85,1,8.8,7,8,8,35,0,s
131.995961,60,1,8.4,6.9,8.5,8.530885,34,8,m
54.60583,85,1,7.5,6.88237,8.009683,5,40,12,m
182.511956,89,1,8.3,6.88237,8.009683,9,22,13,s
5998.13122,88,1,8.3,6.5,7.8,8.530885,10,0,s
97.072162,85,1,9.1,7.2,8.3,8.530885,29,9,s
3973.296159,88,3,8.6,6.88237,7.3,6,15,7,s
173.792758,85,1,7,6.1,6.8,8.530885,10,10,s
72.569304,88,1,5.5,6.88237,8.009683,5,34,0,s
1970.94613,85,1,8.5,7.7,8.1,9,13,0,s
522.386769,88,1,8.2,6.88237,8.009683,9,47,129,s
349.826306,86,1,9,6.88237,8.5,7,22,26,l
100.806456,85,1,9.1,7.2,8.3,8.530885,29,7,s
1800.084476,60,1,9.1,7,8.8,8.530885,30,9,l
7390.828869,81,1,8.8,7.2,8.5,9,22,29,s
40.792811,50,1,7,6.88237,8.009683,8,21,6,s
7507.488904,81,3,8.6,6.88237,7.3,6,15,9,s
10123.33377,88,1,8.1,6.88237,8.009683,9,19,0,s
298.325536,81,1,8.1,7.1,8.1,8.530885,18,0,m
205.378974,85,1,6.9,6.88237,6.9,8.530885,30,59,s
95.89082,85,1,9.1,7.2,8.3,8.530885,29,0,m
280.327341,85,1,8.2,6.88237,8.009683,6,7,0,m
121.353368,85,1,9.1,7.2,8.3,8.530885,29,7,m
182.629744,89,1,8.3,6.88237,8.009683,9,22,10,m
104.706604,85,1,7,6.3,6.7,6,46,0,s
8415.372508,81,1,8.2,6.88237,8.009683,8,25,0,s
181.375346,89,1,8.3,6.88237,8.009683,9,22,12,s
812.276807,87,1,7.9,6.88237,8.009683,4,14,0,s
6914.80629,88,1,8.2,6.88237,8.009683,6,7,0,s
650.224009,60,1,9.1,7,8.8,8.530885,30,8,l
172.653624,85,1,8.3,6.88237,8.1,8.530885,15,8,s
16988.2519,85,1,9.5,6.88237,8.5,12,33,7,l
216.411693,85,1,7.4,6.2,7.1,8.530885,10,16,s
258.162689,85,1,9.1,7.2,8.3,8.530885,29,7,l
566.34629,85,1,9.1,7.2,8.3,8.530885,29,7,m
3688.108155,80,3,8.6,6.88237,7.3,6,15,0,m
319.664269,82,1,7.1,6.88237,8.009683,2,21,9,s
277.56838,60,1,7.7,6.1,7.2,8.530885,20,11,m
8483.468996,88,1,8.2,7.6,7.9,8.530885,35,5,s
6489.007806,83,1,8.8,7,8,8,35,269,s
97.479705,85,1,9.1,7.2,8.3,8.530885,29,6,m
58.208568,85,1,7.5,6.88237,8.009683,5,40,15,m
2505.599675,85,1,7.5,6.5,7.5,4,11,0,s
4476.632698,60,1,9.1,7,8.8,8.530885,30,7,s
224.862599,83,1,7.3,6.88237,7.3,8.530885,26.742663,11,s
13110.60824,89,1,9.1,7.2,8.3,8.530885,29,0,m
300.000616,85,1,7,5.8,7,8.530885,15,15,s
11180.70512,80,1,9.5,6.88237,8.5,12,33,22,m
104.1221,85,1,7.5,6.88237,8.009683,5,40,6,m
261.408263,60,1,9.1,7,8.8,8.530885,30,7,l
458.165772,85,1,6.7,6.88237,6.7,8.530885,20,0,s
20.513083,83,1,7,6.88237,7.4,8,15,261,s
127.73555,60,1,7.8,6.5,7.3,8.530885,20,11,m
8299.089559,81,1,7.7,6.5,7.5,8.530885,14,0,s
298.190138,81,1,8.1,7.1,8.1,8.530885,18,14,m
3541.824776,80,1,8,6.4,7.7,6,19,0,s
105.960656,85,1,7.2,6,7.2,8.530885,44,10,s
479.790595,86,1,7.5,6.4,7.5,6,33,29,s
4446.552596,80,3,9.2,6.88237,8.4,10,25,0,m
661.658426,86,1,8.1,7.3,8.2,8.530885,10,0,s
11018.8186,80,1,9.5,6.88237,8.5,12,33,0,s
27.514618,83,1,7.9,6.3,7.6,6,24,10,m
68.46752,83,3,7.5,6.88237,8.009683,9,20,11,m
2727.29318,85,1,8.7,7.7,7.8,6,30,0,s
9164.281956,82,1,7.7,6.5,7.5,8.530885,14,14,s
3684.610336,85,1,8,6.4,7.7,6,19,69,s
160.076266,89,1,8.3,6.88237,8.009683,9,22,17,m
16984.04034,85,1,9.5,6.88237,8.5,12,33,36,m
182.057763,89,1,8.3,6.88237,8.009683,9,22,5,m
175.369341,85,1,9.1,7.2,8.3,8.530885,29,8,m
1648.146342,85,1,8.3,6.88237,8.009683,10,40,0,s
258.521837,85,1,8.4,6.88237,8.5,8.530885,15,0,m
319.610869,85,1,7.8,6.8,7.7,8,24,5,s
103.160508,85,1,6.5,6.88237,8.009683,8.530885,41,0,s
2725.499726,85,1,8.3,6.88237,8.1,8.530885,15,647,m
3772.360715,80,3,8.6,6.88237,7.3,6,15,0,l
1622.71624,60,1,9.1,7,8.8,8.530885,30,0,m
84.146863,85,1,8.3,6.88237,8.1,8.530885,15,5,l
1109.658766,85,1,7.5,6.4,7.3,8.530885,33,10,s
4104.458093,85,3,7,5.8,7.1,8.530885,25,95,s
2892.699692,85,1,8.7,7.7,7.8,6,30,41,s
9354.819107,81,1,8.8,7.2,8.5,9,22,188,s
9572.840012,81,1,9.1,7.2,8.3,8.530885,29,0,s
25.589274,89,1,8.3,6.88237,8.009683,9,22,17,l
24.560155,85,1,7.9,6.88237,7.9,8.530885,35,9,l
101.494002,85,1,9.1,7.2,8.3,8.530885,29,7,s
3995.024623,80,1,7.8,6.2,7.2,8.530885,33,0,s
16988.53132,85,1,9.5,6.88237,8.5,12,33,74,m
17417.65625,85,1,9.5,6.88237,8.5,12,33,8,s
181.655539,89,1,8.3,6.88237,8.009683,9,22,19,m
211.367401,85,1,7.5,6.88237,7.5,8.530885,0,0,s
182.060538,89,1,8.3,6.88237,8.009683,9,22,8,m
49.240015,83,3,7.5,6.88237,8.009683,9,20,15,m
10502.4779,80,1,8.2,6.88237,8.009683,8,25,0,s
325.002401,85,1,9.1,7.2,8.3,8.530885,29,4,l
1234.212493,87,1,7.2,6.3,7.2,8,27,68,s
59.830921,60,1,7.8,6.5,7.3,8.530885,20,7,l
262.726006,60,1,9.1,7,8.8,8.530885,30,0,m
18.687133,82,1,7.1,6.4,7.1,8.530885,25,15,l
867.934367,88,1,8.2,6.88237,8.009683,9,47,0,s
2.317344,50,3,5.9,6.88237,5.9,8,6,15,m
6859.480221,81,1,9.1,7.2,8.3,8.530885,29,9,s
275.480861,85,1,8.4,6.88237,8.5,8.530885,15,85,m
767.571661,84,3,7.5,6.9,7.2,9,10,7,s
72.879998,85,1,8.3,6.9,8.1,8.530885,27,24,m
287.306372,85,1,7.5,6.88237,8.009683,8.530885,33,0,s
70.534019,74,1,7.3,6.88237,8.009683,10,33,385,m
4751.188469,84,1,8.8,7,8,8,35,0,s
77.148981,60,3,7.8,6.5,7.5,11,28,7,l
335.876641,85,1,7.7,6.6,7.6,8,17,6,s
3564.137957,80,1,8.6,6.88237,9.1,8.530885,33,23,l
527.485822,85,1,7.9,6.88237,7.9,9,40,0,m
181.511621,89,1,8.3,6.88237,8.009683,9,22,12,s
283.272859,85,1,8.2,6.88237,8.009683,6,7,8,s
25.168559,74,1,6.4,6.88237,8.009683,8,10,21,s
8650.028538,80,1,6.8,6.88237,8.009683,8.530885,93,11,s
75.897753,82,3,7.3,6.3,7.2,7,46,17,s
518.880435,60,1,9.1,7,8.8,8.530885,30,9,m
16.252141,50,1,7,6.88237,8.009683,8,21,2,s
209.645265,84,1,8,6.4,7.9,6,33,48,m
185.976669,81,1,8.1,7.1,8.1,8.530885,18,11,l
11.109416,50,3,7,6.88237,7.2,11,40,0,m
294.456246,86,1,7.5,6.88237,7.5,9,10,13,m
2696.903604,85,1,8.8,7,8,8,35,9,s
17.119633,85,1,7.3,6.88237,7.3,8.530885,26.742663,8,s
87.660773,85,1,9.1,7.2,8.3,8.530885,29,7,m
95.321487,85,1,9.1,7.2,8.3,8.530885,29,6,l
10663.23843,88,3,8.2,6.5,8.1,9,33,0,s
17474.28611,85,1,9.5,6.88237,8.5,12,33,64,s
243.798857,85,1,9.1,7.2,8.3,8.530885,29,6,m
313.853333,85,1,9.1,7.2,8.3,8.530885,29,11,l
132.16909,85,1,9.1,7.2,8.3,8.530885,29,7,m
1050.143326,85,1,9.1,7.2,8.3,8.530885,29,0,s
222.187969,85,1,6.9,6.4,6.7,10,44,0,s
79.989031,89,1,8.8,7.2,8.5,9,22,19,l
2495.031258,60,1,9.1,7,8.8,8.530885,30,0,m
182.34754,89,1,8.3,6.88237,8.009683,9,22,7,s
94.802731,85,1,7.2,6.2,6.8,8.530885,37,0,s
168.589294,87,1,6.8,6.5,6.9,8.530885,32,0,s
133.88136,85,1,9.1,7.2,8.3,8.530885,29,7,l
65.082858,83,3,7.5,6.88237,8.009683,9,20,13,m
280.251746,81,1,7.8,6.4,7.8,5,33,0,s
71.072845,60,3,7.8,6.5,7.5,11,28,7,m
13303.47594,89,1,9.1,7.2,8.3,8.530885,29,0,m
98.666668,85,1,8.3,6.9,8.1,8.530885,27,6,m
5100.625203,88,1,8.6,6.88237,9.1,8.530885,33,5,s
550.362654,87,1,8,6.88237,8,7,26.742663,20,l
861.692911,85,1,9.1,7.2,8.3,8.530885,29,58,s
128.856821,85,1,9.1,7.2,8.3,8.530885,29,10,m
263.341868,85,1,8.4,6.88237,8.5,8.530885,15,0,l
371.183687,85,1,7,5.8,7,8.530885,15,19,s
188.404334,85,1,6.9,6.4,6.7,10,44,6,s
384.848813,85,1,8.1,6.88237,8.3,9,45,0,m
132.444723,85,1,9.1,7.2,8.3,8.530885,29,12,l
9760.440668,88,1,7.9,6.3,7.9,6,48,0,s
3881.313705,80,3,8.6,6.88237,7.3,6,15,0,m
3488.76335,85,1,7.9,6.6,7.6,6,33,69,s
1186.07294,85,1,7.4,6.6,7.4,10,66,0,s
136.314766,85,1,9.1,7.2,8.3,8.530885,29,11,l
188.935049,81,1,8.1,7.1,8.1,8.530885,18,23,l
201.897506,81,1,8.1,7.1,8.1,8.530885,18,20,m
68.167838,85,1,8.3,6.88237,8.1,8.530885,15,0,m
160.705632,86,1,8.3,6.5,7.8,8.530885,10,0,l
758.627837,81,1,7.7,6.88237,8.009683,7,10,0,s
528.099886,85,1,8.2,6.88237,8.3,8.530885,33,0,s
7600.498551,81,1,9.5,6.88237,8.5,12,33,3,m
982.072376,89,1,8.2,6.88237,8.009683,8,25,42,s
281.616561,85,1,7.8,6.8,7.7,8,24,55,s
16568.61254,86,1,8.8,7.2,8.5,9,22,26,s
3563.859543,80,3,8.6,6.88237,7.3,6,15,0,m
15470.73189,89,1,8.8,7,8,8,35,0,m
122.840581,85,1,8.1,6.88237,8,8.530885,30,0,m
5169.973861,85,1,7.9,6.3,7.9,6,48,0,s
166.495979,81,1,8.1,7.1,8.1,8.530885,18,9,m
5992.955488,85,1,7.7,6.4,7.9,8.530885,33,0,s
34.040101,89,1,8.2,6.88237,8.2,11,26.742663,45,m
13815.41655,85,1,8.1,6.4,7.7,9,23,0,s
562.117135,60,1,9.1,7,8.8,8.530885,30,0,m
181.496496,89,1,8.3,6.88237,8.009683,9,22,22,s
207.096166,85,1,9.1,7.2,8.3,8.530885,29,7,l
69.444091,83,3,7.5,6.88237,8.009683,9,20,10,l
10982.52807,80,1,9.5,6.88237,8.5,12,33,0,s
442.372028,87,3,9.2,6.88237,8.4,10,25,23,l
181.199333,81,1,8.1,7.1,8.1,8.530885,18,16,m
942.998026,85,1,8.5,7.7,8.1,9,13,0,s
9520.693559,88,1,8.4,6.88237,8.4,8.530885,26.742663,5,s
440.64177,85,1,7,6.88237,8.009683,8.530885,80,84,s
83.613976,85,1,8.1,6.88237,8,8.530885,30,67,l
17147.53197,85,1,9.5,6.88237,8.5,12,33,0,s
65.788365,85,1,8.1,6.88237,8,8.530885,30,8,m
884.86212,89,1,8.4,6.7,8.2,8,33,10,s
2516.66987,60,1,9.1,7,8.8,8.530885,30,8,m
209.768622,85,1,9.1,7.2,8.3,8.530885,29,7,m
2995.748403,85,1,8,6.4,7.9,6,33,0,s
273.240163,89,1,8.3,6.88237,8.009683,9,22,12,m
11486.92978,87,1,8.3,6.88237,8.009683,9,22,5,s
274.047278,85,1,8.4,6.88237,8.5,8.530885,15,10,m
160.158997,89,1,8.3,6.88237,8.009683,9,22,0,l
4588.729527,81,1,7.4,6.88237,8.009683,7,55,0,s
13179.22976,89,1,9.1,7.2,8.3,8.530885,29,1,s
2407.360383,85,1,7.5,6.5,7.5,4,11,12,s
8421.78204,88,1,8.2,6.88237,8.009683,6,7,0,s
312.314809,60,1,7.8,5.7,7.2,8.530885,18,0,m
265.13283,85,1,9.1,7.2,8.3,8.530885,29,9,m
445.083109,81,1,7.4,6.88237,8.009683,8.530885,10,0,s
205.587292,85,1,7.8,6.8,7.7,8,24,78,m
130.142843,85,1,9.1,7.2,8.3,8.530885,29,8,m
5244.027157,80,1,9.1,7.2,8.3,8.530885,29,3,s
166.734143,85,1,8,6.88237,8,5,26.742663,0,m
86.03288,82,1,7,6.88237,8.009683,4,10,0,s
13199.21263,89,1,9.1,7.2,8.3,8.530885,29,0,s
294.912353,50,3,6.7,6.88237,6.7,11,15,35,s
120.318141,85,1,9.1,7.2,8.3,8.530885,29,8,l
197.390076,85,1,9.1,7.2,8.3,8.530885,29,10,m
5407.114892,60,1,9.1,7,8.8,8.530885,30,10,m
95.309999,50,3,7.7,6.88237,7.8,9,20,0,m
318.167494,85,1,9.1,7.2,8.3,8.530885,29,7,m
26.722989,85,1,6.4,6.88237,8.009683,8.530885,12,0,s
3805.247765,85,3,8.2,6.5,8.1,9,33,0,s
15233.84675,75,1,9.1,7,8.8,8.530885,30,6,s
444.133212,85,1,7.8,6.8,7.7,8,24,0,s
167.122187,81,1,8.1,7.1,8.1,8.530885,18,3,m
194.356696,85,1,9.1,7.2,8.3,8.530885,29,11,l
91.862731,50,1,6.4,6.1,6.3,2,19,6,s
8690.932051,88,1,8.4,6.7,8.2,8,33,0,s
181.368869,89,1,8.3,6.88237,8.009683,9,22,14,s
786.252843,85,1,7.5,6.88237,7.5,9,10,4,s
7836.32353,85,1,9,6.88237,9,8.530885,26.742663,438,l
7014.368772,85,1,7.5,6.4,7.3,8.530885,33,6,s
1043.339196,84,1,7.7,6.6,7.6,8,17,26,m
6406.576483,85,3,9.2,6.88237,8.4,10,25,0,s
781.569684,85,1,6.8,6.9,6.8,8.530885,15,0,s
254.843173,60,1,9.1,7,8.8,8.530885,30,14,l
492.124676,85,1,7.7,6.88237,7.7,8.530885,26.742663,13,m
2741.339025,88,3,9.2,6.88237,8.4,10,25,7,m
10661.94162,80,1,9.5,6.88237,8.5,12,33,32,m
497.114177,74,1,7.5,6.88237,8.009683,8,19,0,s
10972.34031,80,1,9.5,6.88237,8.5,12,33,12,m
5943.409197,85,3,9.2,6.88237,8.4,10,25,0,s
477.05859,85,1,7.4,6.88237,7.4,8.530885,26.742663,85,m
2018.725635,60,1,9.1,7,8.8,8.530885,30,18,m
405.382297,82,1,8,7.8,7.5,8.530885,33,0,m
16977.44251,85,1,9.5,6.88237,8.5,12,33,0,m
10697.88876,80,1,9.5,6.88237,8.5,12,33,0,l
15967.68064,89,1,8.1,7.3,8.2,8.530885,10,0,s
129.035151,85,1,9.1,7.2,8.3,8.530885,29,8,l
18.687133,82,1,7.1,6.4,7.1,8.530885,25,15,l
63.5999,85,3,7.5,6.9,7.2,9,10,4,m
13134.71223,89,1,9.1,7.2,8.3,8.530885,29,10,s
4706.790915,60,1,9.1,7,8.8,8.530885,30,7,m
924.38688,50,1,6.8,6.5,6.9,10,12,0,s
16415.49584,89,1,9.1,7,8.8,8.530885,30,0,s
112.102152,89,1,8.4,6.7,8.2,8,33,163,m
52.482582,89,1,8.3,6.88237,8.009683,9,22,5,l
196.484416,85,1,7.5,6.88237,7.5,9,10,10,s
231.856033,88,1,7.6,5.4,7.7,8.530885,30,13,l
181.417822,89,1,8.3,6.88237,8.009683,9,22,14,s
271.166106,85,1,9.1,7.2,8.3,8.530885,29,9,l
239.987578,85,1,8.4,6.88237,8.5,8.530885,15,0,m
431.19538,85,1,7.3,6.4,7.3,8.530885,32,0,s
212.943952,85,1,9.1,7.2,8.3,8.530885,29,11,l
35.323243,50,1,6.6,6.8,6.8,9,15,5,m
432.756344,86,1,7.7,6.6,7.6,8,17,20,s
156.322862,85,1,7.8,6.4,7.5,9,27,0,s
133.855956,85,1,9.1,7.2,8.3,8.530885,29,8,m
9590.267603,81,1,9.1,7.2,8.3,8.530885,29,6,m
990.4582,85,1,9.1,7.2,8.3,8.530885,29,0,s
13235.35267,89,1,9.1,7.2,8.3,8.530885,29,5,m
43.782976,60,1,7.8,6.5,7.3,8.530885,20,5,m
97.00994,85,1,9.1,7.2,8.3,8.530885,29,7,l
897.754688,60,1,9.1,7,8.8,8.530885,30,23,l
10862.92947,80,1,9.5,6.88237,8.5,12,33,0,m
228.785644,85,1,6.4,6,6.4,8.530885,10,4,s
641.672091,60,1,9.1,7,8.8,8.530885,30,158,l
488.498919,85,1,6.9,6.4,6.9,8.530885,33,7,s
686.784071,85,3,6.8,6.3,6.9,8.530885,20,8,s
2725.499726,85,5,6.4,6.88237,6.4,8.530885,26.742663,647,l
258.992103,60,1,9.1,7,8.8,8.530885,30,9,l
248.464998,85,1,9.1,7.2,8.3,8.530885,29,12,l
13310.73836,89,1,9.1,7.2,8.3,8.530885,29,0,m
15185.27698,85,1,8.8,8.2,8.6,9,20,11,s
3564.77556,80,1,8.6,6.88237,9.1,8.530885,33,18,m
461.602209,87,3,9.2,6.88237,8.4,10,25,0,l
6147.186871,60,1,9.1,7,8.8,8.530885,30,0,m
7633.477129,82,1,8.8,7,8,8,35,0,s
5413.83984,60,1,9.1,7,8.8,8.530885,30,0,m
3769.445104,80,1,7.9,6.6,7.6,6,33,0,s
255.230295,60,1,9.1,7,8.8,8.530885,30,12,l
1965.491035,60,1,9.1,7,8.8,8.530885,30,10,l
413.404471,85,1,9.1,7.2,8.3,8.530885,29,30,s
136.937899,85,1,6.4,6.88237,8.009683,8.530885,20,0,s
886.091355,85,1,7.9,6.6,7.9,5,33,0,s
17336.63045,85,1,9.5,6.88237,8.5,12,33,0,s
1800.840113,89,1,7.3,6.88237,8.009683,8.530885,28,0,s
216.46971,85,1,9.1,7.2,8.3,8.530885,29,6,l
1570.944117,87,1,8.8,7,8,8,35,8,s
267.860441,74,3,7.1,6.88237,8.009683,9,15,0,s
5430.888493,80,1,8.1,7.3,8.2,8.530885,10,11,s
3805.412492,80,3,8.6,6.88237,7.3,6,15,0,l
6122.235223,80,1,9.1,7.2,8.3,8.530885,29,8,s
182.564337,89,1,8.3,6.88237,8.009683,9,22,16,l
285.194806,81,1,6.9,6.88237,8.009683,6,12,0,s
3323.79085,60,3,8,7.7,8,10,15,6,s
839.452707,73,1,7.8,6.7,7.9,6,33,0,s
152.946816,85,1,9.1,7.2,8.3,8.530885,29,0,l
16996.93702,85,1,9.5,6.88237,8.5,12,33,0,m
7301.912176,81,1,8.6,6.88237,9.1,8.530885,33,19,s
133.842403,85,1,9.1,7.2,8.3,8.530885,29,7,l
268.449801,85,1,9.1,7.2,8.3,8.530885,29,8,m
47.50717,85,1,6.9,6.4,6.7,10,44,0,s
146.664488,85,1,7,6.88237,7,8.530885,34,0,s
2305.778421,85,1,9,6.88237,8.5,7,22,0,s
1086.008598,82,1,7.8,6.88237,8.009683,8,40,0,s
130.594485,89,1,8.4,6.7,8.2,8,33,9,m
195.330124,81,1,8.1,7.1,8.1,8.530885,18,21,m
108.176194,85,1,9.1,7.2,8.3,8.530885,29,4,m
300.514454,73,1,6.7,7.1,6.5,10,16,56,s
183.054193,89,1,8.3,6.88237,8.009683,9,22,11,s
720.411561,85,1,7.8,6.8,7.7,8,24,65,m
726.716778,85,1,7.8,6.8,7.7,8,24,14,s
80.423092,85,3,7.5,6.9,7.2,9,10,4,s
117.34779,85,1,8.3,6.88237,8.1,8.530885,15,56,m
376.589794,85,1,8.2,6.88237,8.009683,6,7,0,m
9004.550735,60,1,8.1,6.88237,8.009683,9,19,7,s
3617.082529,80,3,8.6,6.88237,7.3,6,15,0,m
144.087847,89,1,8.3,6.88237,8.009683,9,22,16,m
286.971998,85,1,8.4,6.88237,8.5,8.530885,15,104,m
2387.194713,85,1,8.1,7.3,8.2,8.530885,10,0,s
106.494917,85,1,9.1,7.2,8.3,8.530885,29,8,l
99.367865,85,1,9.1,7.2,8.3,8.530885,29,0,l
4218.227942,85,1,8.7,7.7,7.8,6,30,0,s
383.224264,85,1,7.4,6.88237,7.4,8.530885,60,6,s
2193.245016,82,1,7.2,6.88237,8.009683,8.530885,34,0,s
1017.202718,60,1,9.1,7,8.8,8.530885,30,14,m
189.739719,81,1,8.1,7.1,8.1,8.530885,18,22,l
3161.738728,88,1,7.9,6.88237,8.009683,4,14,33,s
12300.08764,89,1,7.9,6.4,7.4,8,24,0,s
5886.127597,60,1,9.1,7,8.8,8.530885,30,9,m
175.161481,85,1,8,6.88237,8,5,26.742663,8,m
1737.965669,60,1,9.1,7,8.8,8.530885,30,11,m
162.56478,88,1,6.8,6.88237,8.009683,8,24,0,s
151.881481,85,1,7.6,6.88237,7.3,8.530885,74,34,s
195.735264,60,1,8.4,6.9,8.5,8.530885,34,0,m
3465.496836,85,1,7.4,6.3,7.4,6,73,0,s
106.542209,85,1,9.1,7.2,8.3,8.530885,29,4,l
11022.20478,80,1,9.5,6.88237,8.5,12,33,0,m
91.199926,85,1,9.1,7.2,8.3,8.530885,29,9,m
110.489527,85,1,8.3,6.9,8.1,8.530885,27,5,s
47.736209,86,1,8.3,7.3,8.1,9,14,48,l
224.894831,60,1,7.7,6.1,7.2,8.530885,20,8,l
132.624409,50,3,5.5,5.3,5.4,8.530885,38,21,s
166.441394,85,1,7.4,6.2,7.1,8.530885,10,52,s
117.910899,85,1,9.1,7.2,8.3,8.530885,29,6,m
439.783317,82,1,6.7,6.88237,8.009683,8.530885,16,0,s
81.51859,80,3,7.7,6,7.2,9,2,18,l
9054.086766,89,1,8.1,6.88237,8.009683,9,19,0,s
2579.192017,60,1,9.1,7,8.8,8.530885,30,3,m
4362.826001,85,1,8.8,7,8,8,35,8,s
48.480192,83,3,7.5,6.88237,8.009683,9,20,10,l
123.593446,85,1,9.1,7.2,8.3,8.530885,29,6,l
2941.762986,88,3,9.2,6.88237,8.4,10,25,0,m
580.491403,89,1,8.3,6.88237,8.009683,9,22,23.263212,s
88.543325,85,1,9.1,7.2,8.3,8.530885,29,15,l
49.342265,86,1,8.3,7.3,8.1,9,14,0,l
11012.53991,80,1,9.5,6.88237,8.5,12,33,0,m
77.792334,83,3,6.8,6.88237,6.8,8.530885,40,29,m
30.480784,50,1,7,6.88237,8.009683,8,21,7,s
263.61332,82,1,7.3,6.3,7.3,8.530885,33,0,s
246.552277,82,1,7.5,7.4,7.1,8.530885,60,17,s
170.154455,81,1,7.2,6.88237,8.009683,8.530885,34,0,s
5903.196344,80,1,8.2,6.88237,8.009683,6,7,0,s
253.274646,89,1,8.3,6.88237,8.009683,9,22,22,l
81.564164,85,1,7.9,6.88237,7.9,8.530885,26.742663,0,l
1671.368394,85,1,8.2,6.88237,7.8,9,30,8,s
78.394069,85,1,8.3,6.88237,8.1,8.530885,15,104,m
108.628153,85,1,7.5,6.88237,7.5,8.530885,0,0,s
16511.73979,85,1,8.4,6.7,8.2,8,33,0,s
81.732664,60,1,7.8,6.5,7.3,8.530885,20,0,s
87.753756,74,1,7.9,6.88237,8,8.530885,15,18,m
16992.97142,85,1,9.5,6.88237,8.5,12,33,33,m
290.630595,85,1,6.9,6.4,6.7,10,44,0,s
30.801838,50,1,7,6.88237,8.009683,8,21,9,s
16971.21524,85,1,9.5,6.88237,8.5,12,33,98,s
1358.94842,85,1,8.3,6.88237,7.6,8.530885,26.742663,91,s
133.036735,85,1,9.1,7.2,8.3,8.530885,29,14,l
321.47536,85,1,8.4,6.88237,8.5,8.530885,15,0,l
36.248457,89,1,8.8,7.2,8.5,9,22,21,l
742.057587,85,1,8.2,6.88237,7.8,9,30,80,s
217.306176,85,1,9.1,7.2,8.3,8.530885,29,7,m
2058.169892,60,1,9.1,7,8.8,8.530885,30,0,s
679.830595,82,1,7.2,5.9,7.3,8.530885,35,0,s
348.252436,85,1,7.5,6.4,7.5,6,33,86,s
178.901444,89,1,8.3,6.88237,8.009683,9,22,12,m
17479.71165,85,1,9.5,6.88237,8.5,12,33,0,m
120.171483,85,1,7.5,6.88237,7.5,7,30,76,s
105.080936,85,1,9.1,7.2,8.3,8.530885,29,18,l
8453.47306,88,1,8.1,7.1,8.1,8.530885,18,7,s
91.672155,85,1,9.1,7.2,8.3,8.530885,29,17,s
24.458534,50,1,7,6.88237,8.009683,8,21,11,m
183.221975,89,1,8.3,6.88237,8.009683,9,22,15,s
151.797012,85,1,8.3,6.88237,8.1,8.530885,15,0,m
188.773458,89,1,8.3,6.88237,8.009683,9,22,14,m
141.301718,89,1,8.3,6.88237,8.009683,9,22,16,l
5311.287759,85,3,9.2,6.88237,8.4,10,25,0,s
1940.692019,73,1,8.5,6.88237,8.5,9,26.742663,0,s
2725.499726,85,1,8.1,6.88237,8,8.530885,30,647,l
13310.47214,89,1,9.1,7.2,8.3,8.530885,29,4,m
9909.679232,88,1,7.8,6.88237,7.9,8.530885,35,5,s
129.707672,60,1,7.8,6.5,7.3,8.530885,20,0,m
17108.71229,85,1,9.5,6.88237,8.5,12,33,0,s
280.378039,85,1,8.4,6.88237,8.5,8.530885,15,0,m
6047.994955,85,3,9.2,6.88237,8.4,10,25,12,s
148.495374,85,1,9.1,7.2,8.3,8.530885,29,22,l
35.942082,89,1,8.8,7.2,8.5,9,22,22,l
133.821915,60,1,7.8,6.5,7.3,8.530885,20,13,s
169.535014,81,1,8.1,7.1,8.1,8.530885,18,10,l
9717.00159,81,1,8.3,6.88237,8.009683,9,22,0,s
16331.75771,85,1,8,6.7,7.9,8,39,0,s
654.347735,81,1,8.1,7.1,8.1,8.530885,18,10,m
1442.025081,85,1,8.3,7.3,8.1,9,14,67,s
17048.63398,85,1,9.5,6.88237,8.5,12,33,10,s
107.296869,85,1,8.3,6.88237,8.1,8.530885,15,5,m
95.981491,85,1,9.1,7.2,8.3,8.530885,29,7,m
121.784106,85,1,9.1,7.2,8.3,8.530885,29,8,m
812.961767,81,1,8.1,6.5,7.7,8.530885,10,0,s
11023.98792,80,1,9.5,6.88237,8.5,12,33,18,m
5980.949682,80,1,9.1,7.2,8.3,8.530885,29,0,m
7952.429874,88,3,9.2,6.88237,8.4,10,25,12,s
96.651949,85,1,9.1,7.2,8.3,8.530885,29,9,s
10654.48067,80,1,9.5,6.88237,8.5,12,33,31,m
5402.046718,60,1,9.1,7,8.8,8.530885,30,0,m
3782.674838,81,1,8,6.88237,8,8.530885,26.742663,0,s
105.772716,85,1,9.1,7.2,8.3,8.530885,29,9,l
2839.624391,85,1,8.8,7,8,8,35,16,s
64.025082,89,1,8,6.7,7.9,8,39,14,m
74.474231,88,1,7,6.88237,7,8.530885,26.742663,63,m
234.541238,85,1,8.3,6.88237,8.1,8.530885,15,6,s
3227.031574,88,3,9.2,6.88237,8.4,10,25,10,m
1814.140926,60,1,9.1,7,8.8,8.530885,30,0,l
12.46063,84,1,7.1,6.1,7.1,8.530885,32,9,m
47.544987,89,1,8.8,7.2,8.5,9,22,24,l
421.752201,85,1,7.8,6.8,7.7,8,24,1,s
2108.414719,60,1,9.1,7,8.8,8.530885,30,2,m
8957.046387,81,1,9.1,7.2,8.3,8.530885,29,188,s
420.832989,86,1,7.5,6.88237,7.5,9,10,21,s
226.671627,85,1,6.7,6.88237,6.7,8.530885,20,69,s
129.911979,85,1,9.1,7.2,8.3,8.530885,29,10,l
1639.023639,81,1,8.1,7.1,8.1,8.530885,18,0,s
8825.971438,88,1,8.2,6.88237,8.009683,8,25,0,s
17020.08023,85,1,9.5,6.88237,8.5,12,33,22,m
277.105929,85,1,7.4,6.6,7.4,10,66,0,s
181.530484,89,1,8.3,6.88237,8.009683,9,22,18,m
66.930559,89,1,7.1,6.88237,8.009683,8,38,0,s
181.404478,89,1,8.3,6.88237,8.009683,9,22,15,s
107.556939,86,1,9,6.88237,8.5,7,22,0,s
16984.04034,85,1,9.5,6.88237,8.5,12,33,36,m
6371.815668,60,1,9.1,7,8.8,8.530885,30,0,m
53.678709,88,1,7.7,6.5,7.5,8.530885,14,21,m
23.969294,50,1,7,6.88237,8.009683,8,21,2,m
121.977634,88,1,7.3,6.88237,8.009683,8.530885,28,5,m
11425.14486,82,1,8.3,6.88237,8.009683,9,22,7,s
187.834761,81,1,8.1,7.1,8.1,8.530885,18,10,l
203.977939,85,1,8.2,6.88237,8.009683,6,7,10,m
37.427919,89,1,8.3,6.88237,8.009683,9,22,15,m
1055.415657,60,1,8.3,7,8,8.530885,25,0,m
55.815562,50,3,7,6.88237,7.2,11,40,7,l
685.175638,85,1,7.8,6.8,7.7,8,24,113,s
1461.318006,89,1,8.2,6.88237,8.009683,8,25,13,s
36.055188,89,1,8.8,7.2,8.5,9,22,17,l
10851.73563,80,1,9.5,6.88237,8.5,12,33,0,m
8921.998067,88,1,8.5,6.88237,8.5,8.530885,26.742663,9,s
137.765003,85,1,9.1,7.2,8.3,8.530885,29,7,m
606.993082,85,1,7.7,6.88237,7.7,8.530885,26.742663,0,s
10845.7482,80,1,9.5,6.88237,8.5,12,33,0,m
1595.851891,88,1,8.2,6.88237,8.009683,9,47,0,s
173.029376,81,1,8.1,7.1,8.1,8.530885,18,23,l
3570.805794,80,3,8.6,6.88237,7.3,6,15,0,l
152.449527,85,1,7.1,6.88237,7.1,8.530885,0,0,s
56.097562,89,1,8,6.7,7.9,8,39,15,m
1290.240569,85,1,8.1,7.3,8.2,8.530885,10,10,s
78.561615,82,1,8.1,6.8,7.9,8.530885,24,8,s
370.626453,85,1,7.1,6.3,7.1,9,9,92,s
7530.084775,81,1,7.6,5.4,7.7,8.530885,30,5,s
95.564035,85,1,9.1,7.2,8.3,8.530885,29,7,s
194.283116,85,1,9.1,7.2,8.3,8.530885,29,15,l
11153.82586,80,1,9.5,6.88237,8.5,12,33,2,m
31.146945,50,1,7,6.88237,8.009683,8,21,6,s
116.568563,88,1,7.6,5.4,7.7,8.530885,30,0,m
398.40649,85,1,9.1,7.2,8.3,8.530885,29,0,m
5118.221455,80,1,9,6.88237,8.5,7,22,0,s
156.810467,50,3,7.7,6.88237,7.8,9,20,7,m
12683.38454,81,1,8.5,6.88237,8.5,11,25,0,s
7585.922141,88,1,8.1,6.88237,8.3,9,45,0,s
143.911106,88,1,7.3,6.88237,8.009683,8.530885,28,7,s
2175.728547,81,1,7.9,6.4,7.4,8,24,0,s
133.702916,85,1,9.1,7.2,8.3,8.530885,29,7,m
3805.412492,80,3,8.6,6.88237,7.3,6,15,0,l
330.294367,87,1,7.3,6.9,8.009683,8.530885,52,8,s
3825.122169,85,1,7.6,6.88237,7.6,8.530885,25,8,s
265.880074,60,1,7.8,5.7,7.2,8.530885,18,156,m
167.039157,81,1,8.1,7.1,8.1,8.530885,18,9,m
206.220321,82,1,8.1,6.8,7.9,8.530885,24,6,s
91.27429,80,1,7.9,6.88237,8.009683,10,26.742663,13,m
147.019723,89,1,8.3,6.88237,8.009683,9,22,6,m
649.72464,85,1,7.8,6.8,7.7,8,24,4,m
68.229802,89,1,8.8,7.2,8.5,9,22,13,l
27.811538,50,1,7,6.88237,8.009683,8,21,6,s
128.399474,85,1,9.1,7.2,8.3,8.530885,29,10,m
14123.76257,80,1,8.1,6.88237,8.009683,8.530885,48,11,s
78.557298,85,1,8.1,6.88237,8,8.530885,30,6,l
197.054527,85,1,8.2,6.88237,8.009683,6,7,0,m
2158.996543,81,1,8.1,6.6,8,8.530885,10,4,s
14513.63273,85,1,7.9,6.88237,7.8,10,43,0,s
16.310233,85,1,7.4,6.88237,7.4,8.530885,26.742663,65,s
106.51317,85,1,9.1,7.2,8.3,8.530885,29,9,l
9867.945243,88,1,9.5,6.88237,8.5,12,33,0,s
3777.934841,80,1,8.6,6.88237,9.1,8.530885,33,0,m
350.34585,60,1,6.9,6.88237,8.009683,4,25,5,s
70.748456,60,3,7.8,6.5,7.5,11,28,9,l
4441.846893,80,3,9.2,6.88237,8.4,10,25,133,s
744.356335,85,1,9.1,7.2,8.3,8.530885,29,5,s
1064.946166,85,1,7.1,6.4,6.9,8.530885,28,0,s
128.067466,85,1,9.1,7.2,8.3,8.530885,29,7,l
133.089757,85,1,9.1,7.2,8.3,8.530885,29,7,s
141.811948,85,1,7.2,6,7.2,8.530885,44,0,s
210.892845,60,1,7.7,6.1,7.2,8.530885,20,11,l
51.433731,88,1,7.7,6.5,7.5,8.530885,14,0,s
250.226182,82,1,7.5,6.88237,8.009683,8.530885,10,9,s
4135.798137,80,1,7.7,6.5,7.5,8.530885,14,0,s
147.925066,85,1,9.1,7.2,8.3,8.530885,29,15,l
81.020021,85,1,7.1,6.4,6.9,8.530885,28,0,m
1783.833927,60,1,9.1,7,8.8,8.530885,30,2,m
851.112814,85,1,9.1,7.2,8.3,8.530885,29,3,m
6046.409651,60,1,9.1,7,8.8,8.530885,30,13,l
207.244873,60,1,7.7,6.1,7.2,8.530885,20,16,m
134.386669,85,1,9.1,7.2,8.3,8.530885,29,8,l
141.046468,85,1,9.1,7.2,8.3,8.530885,29,6,m
2725.499726,85,1,8.1,6.88237,8,8.530885,30,647,s
104.323541,85,1,8.1,6.88237,8,8.530885,30,0,l
148.783334,85,1,7.1,6.88237,8.009683,8.530885,25,9,s
6101.749238,87,1,9.1,7.2,8.3,8.530885,29,5,s
273.295956,85,1,7.8,6.8,7.7,8,24,7,s
2121.707203,88,1,6,6.88237,6,5,29,4,s
1276.206084,85,1,9.1,7.2,8.3,8.530885,29,2,s
3806.057197,80,3,8.6,6.88237,7.3,6,15,9,l
84.146863,85,1,8.3,6.88237,8.1,8.530885,15,5,l
3884.67493,85,1,7.6,6.88237,7.6,8.530885,25,10,s
205.360232,85,1,8.3,6.88237,8.1,8.530885,15,0,m
67.468766,85,3,7.5,6.9,7.2,9,10,0,s
130.832271,50,3,7.7,6.88237,7.8,9,20,5,s
536.536051,60,1,9.1,7,8.8,8.530885,30,6,m
3256.915089,81,1,8.1,6.88237,8.009683,9,19,9,s
9660.924251,88,1,9.5,6.88237,8.5,12,33,0,s
3348.144836,88,1,8.1,6.4,7.7,9,23,0,s
67.04256,85,1,8.2,6.88237,8.2,8.530885,26.742663,0,l
169.838283,85,1,7.5,6.88237,7.5,9,10,6,s
115.910976,85,1,9.1,7.2,8.3,8.530885,29,4,m
3842.752532,80,1,8.2,6.88237,8.009683,6,7,0,s
388.052337,85,1,8.1,6.88237,8.3,9,45,0,s
1043.908749,84,1,7.7,6.6,7.6,8,17,0,m
11873.764,81,3,9.2,6.88237,8.4,10,25,0,s
34.637357,85,1,6.6,6.88237,6.6,8.530885,20,91,s
2725.499726,81,3,7.1,6.88237,7.2,4,12,647,m
10135.52434,80,1,8.2,6.88237,8.009683,8,25,7,s
180.119822,60,1,8.6,7.2,8.4,8.530885,30,13,m
1084.677763,82,1,7.6,6.88237,8.009683,8.530885,23,12,s
240.653194,85,1,8.4,6.88237,8.5,8.530885,15,0,l
15175.5232,85,1,8.5,6.88237,8.009683,10,60,259,m
62.73441,83,3,7.5,6.88237,8.009683,9,20,23,l
293.232899,85,1,6.8,6.88237,8.009683,8.530885,36,95,s
71.851385,85,1,8.3,6.9,8.1,8.530885,27,6,m
11165.34531,80,1,9.5,6.88237,8.5,12,33,16,m
60.680463,82,1,8.1,6.8,7.9,8.530885,24,6,l
1149.269908,85,1,8.3,7.3,8.1,9,14,30,s
99.669549,85,1,9.1,7.2,8.3,8.530885,29,6,l
111.897674,82,1,7.8,6.88237,7.9,8.530885,35,9,m
16.336341,50,1,7,6.88237,8.009683,8,21,4,s
5453.00582,80,1,8.3,6.5,7.8,8.530885,10,5,s
212.466048,88,1,8,6.8,8.1,9,28,0,s
181.217822,60,1,7.7,6.1,7.2,8.530885,20,0,m
181.825255,85,1,9.1,7.2,8.3,8.530885,29,7,m
125.148541,85,1,9.1,7.2,8.3,8.530885,29,8,m
14802.32087,89,1,8.8,7,8,8,35,7,s
2595.971818,60,1,9.1,7,8.8,8.530885,30,0,s
77.736967,60,1,8.6,7.2,8.4,8.530885,30,40,s
3649.590894,80,1,8.6,6.88237,9.1,8.530885,33,16,l
2497.774379,60,1,9.1,7,8.8,8.530885,30,0,m
116.367338,85,1,7.7,6.6,7.6,8,17,0,m
100.72265,85,3,7.5,6.9,7.2,9,10,5,m
72.852059,60,1,7.8,6.5,7.3,8.530885,20,11,l
3646.12861,80,1,8.6,6.88237,9.1,8.530885,33,0,l
2185.051119,85,1,7.4,6.3,7.4,6,73,12,s
416.41332,85,1,8.2,6.88237,8.009683,6,7,24,m
9306.183246,81,1,9.1,7.2,8.3,8.530885,29,0,s
542.356944,85,1,8.3,7.3,8.1,9,14,0,s
3337.522433,85,1,7.9,6.6,7.6,6,33,0,s
1728.614125,60,1,9.1,7,8.8,8.530885,30,12,l
10804.17164,60,1,9.5,6.88237,8.5,12,33,6,s
11634.11698,89,1,8.6,6.88237,9.1,8.530885,33,0,s
1586.377968,82,1,8.1,6.8,7.9,8.530885,24,0,s
2505.947824,60,1,9.1,7,8.8,8.530885,30,2,m
124.27596,85,1,9.1,7.2,8.3,8.530885,29,7,s
1587.277434,81,1,8.1,6.88237,8.009683,9,19,2,s
69.095538,83,3,7.5,6.88237,8.009683,9,20,17,l
22.139594,85,1,6.9,6.4,6.7,10,44,0,s
3773.949173,85,3,8.2,6.5,8.1,9,33,0,s
3921.898654,60,1,8.2,6.88237,7.8,8.530885,50,4,s
17067.87787,85,1,9.5,6.88237,8.5,12,33,0,m
9.37074,85,3,7.5,6.9,7.2,9,10,5,l
119.32429,89,1,7.5,5.8,6.6,4,10,7,m
3362.059449,88,1,6.8,6.88237,8.009683,8.530885,93,8,s
10439.52132,80,1,8.5,6.88237,8.5,11,25,9,s
359.142565,85,1,9.1,7.2,8.3,8.530885,29,8,m
187.871604,85,1,6.6,5.8,6.4,8.530885,28,0,s
170.121239,60,1,6.5,6.4,6.6,8.530885,25,0,s
84.2868,85,1,6.6,5.8,6.6,8.530885,50,0,s
3565.928712,80,1,8.6,6.88237,9.1,8.530885,33,10,m
8890.282019,81,1,9.1,7.2,8.3,8.530885,29,0,s
392.919811,85,1,7.1,6.88237,8.009683,8.530885,60,0,s
91.531177,88,3,6.7,6.88237,8.009683,8,26.742663,0,m
151.249802,85,1,9.1,7.2,8.3,8.530885,29,6,m
334.698437,85,1,9.1,7.2,8.3,8.530885,29,7,m
3979.542646,80,1,8.6,6.88237,9.1,8.530885,33,0,m
7874.337578,88,1,9.1,7.2,8.3,8.530885,29,0,m
462.650313,85,1,7.9,6.88237,7.9,9,40,0,m
11.46821,50,1,6.6,6.88237,8.009683,7,7,3,s
189.994535,81,1,8.1,7.1,8.1,8.530885,18,17,m
79.688425,85,1,9.1,7.2,8.3,8.530885,29,10,m
421.752201,85,1,7.8,6.8,7.7,8,24,1,s
7525.602738,81,3,9.2,6.88237,8.4,10,25,18,s
379.748974,85,1,8.2,6.88237,8.009683,6,7,11,s
3481.713348,80,3,8.6,6.88237,7.3,6,15,0,l
99.366322,85,1,9.1,7.2,8.3,8.530885,29,7,l
9281.635195,88,1,7.6,6.4,7.3,8.530885,45,0,s
298.297062,81,1,8.1,7.1,8.1,8.530885,18,13,m
258.292179,85,1,9.1,7.2,8.3,8.530885,29,7,m
20.624627,85,3,7.5,6.9,7.2,9,10,9,m
98.121137,85,1,9.1,7.2,8.3,8.530885,29,9,l
60.520593,82,1,7.6,6.5,7.8,8.530885,13,12,m
4944.959406,85,3,9.2,6.88237,8.4,10,25,0,s
20.339885,50,1,7.6,6.3,7.8,10,13,0,m
15484.08347,86,1,9.5,6.88237,8.5,12,33,0,s
498.680915,85,1,9.1,7.2,8.3,8.530885,29,10,m
1867.869861,89,1,8.4,6.7,8.2,8,33,0,s
264.159946,85,1,9.1,7.2,8.3,8.530885,29,9,l
3794.289776,80,3,8.6,6.88237,7.3,6,15,138,l
1010.094836,89,1,8.3,6.88237,8.009683,9,22,0,s
256.307352,85,1,9.1,7.2,8.3,8.530885,29,9,l
9706.399924,81,1,9.1,7.2,8.3,8.530885,29,42,m
211.929079,85,1,9.1,7.2,8.3,8.530885,29,12,l
26.429751,50,3,7.7,6.88237,7.8,9,20,7,m
10959.67777,81,1,9.5,6.88237,8.5,12,33,5,s
119.713504,89,1,8.3,6.88237,8.009683,9,22,19,m
82.914437,82,1,8.1,6.8,7.9,8.530885,24,18,m
191.333553,85,1,8.3,6.88237,8.1,8.530885,15,11,m
57.908965,83,3,7.5,6.88237,8.009683,9,20,13,m
3294.77695,85,1,9,6.88237,8.5,7,22,0,s
2382.168135,82,1,8.1,7.1,8.1,8.530885,18,0,s
9025.854694,88,1,8.8,7.2,8.5,9,22,0,s
202.41655,81,1,8.1,7.1,8.1,8.530885,18,17,m
38.180386,82,1,8.1,6.8,7.9,8.530885,24,5,s
10139.72675,88,1,8.1,6.88237,8.009683,9,19,41,s
383.071052,85,1,8.2,6.88237,8.009683,6,7,5,s
115.221412,85,1,9.1,7.2,8.3,8.530885,29,24,l
166.455793,85,1,7.5,6.88237,7.5,9,10,0,s
186.334002,85,1,8.1,6.88237,8,8.530885,30,0,s
3098.552749,88,1,7.8,7.9,7.5,5,50,12,s
26.013265,89,1,8,6.7,7.8,8,40,15,m
35.912788,60,1,7.8,6.5,7.3,8.530885,20,0,m
178.299607,85,1,7.7,6.6,7.6,8,17,0,s
146.972911,89,1,8.3,6.88237,8.009683,9,22,18,m
265.907868,85,1,9.1,7.2,8.3,8.530885,29,8,l
154.098679,83,1,7.1,6.88237,8.009683,8.530885,33,0,s
355.082415,74,1,7.3,6.88237,8.009683,10,33,10,m
4146.143519,88,3,8.6,6.88237,7.3,6,15,0,m
183.140024,89,1,8.3,6.88237,8.009683,9,22,12,s
266.646145,85,1,9.1,7.2,8.3,8.530885,29,12,l
4372.144272,60,1,9.1,7,8.8,8.530885,30,7,m
5979.662676,88,1,8.8,7,8,8,35,0,s
275.397027,85,1,7.8,6.8,7.7,8,24,17,s
567.951921,85,1,9.1,7.2,8.3,8.530885,29,7,m
15334.48239,88,1,8.1,6.88237,8.009683,8.530885,48,12,s
3735.387145,80,3,8.6,6.88237,7.3,6,15,0,l
153.048235,85,1,8.3,6.9,8.1,8.530885,27,3,m
163.578429,85,1,9.1,7.2,8.3,8.530885,29,15,l
6127.207289,85,1,7.7,6.4,7.9,8.530885,33,34,s
5968.407742,80,1,8.1,6.88237,8.009683,9,19,5,s
129.766813,86,1,7.7,6.88237,7.3,10,51,48,l
11193.82903,87,1,8,6.7,7.9,8,39,0,s
360.171284,80,3,7.7,6,7.2,9,2,0,s
181.705679,89,1,8.3,6.88237,8.009683,9,22,11,m
1158.334557,89,1,8.3,6.88237,8.009683,9,22,10,s
56.902526,89,1,8,6.7,7.9,8,39,10,m
252.262492,89,1,8.8,7.2,8.5,9,22,12,l
183.022753,89,1,8.3,6.88237,8.009683,9,22,10,s
7445.511932,88,1,8.1,6.88237,7.5,9,38,0,s
1772.355363,60,1,9.1,7,8.8,8.530885,30,11,l
2014.731096,60,1,9.1,7,8.8,8.530885,30,8,m
283.127659,81,1,8.3,6.88237,8.3,8.530885,25,0,m
48.324702,81,1,7.8,6.88237,8.009683,9,15,13,l
399.977859,85,1,7.5,6.88237,8.009683,5,40,312,s
132.741306,85,1,9.1,7.2,8.3,8.530885,29,7,l
16961.99594,85,1,9.5,6.88237,8.5,12,33,0,l
60.332398,82,1,8.1,6.8,7.9,8.530885,24,10,l
140.620743,82,1,7.3,6.8,7.4,8.530885,16,8,m
246.869115,85,1,9.1,7.2,8.3,8.530885,29,5,l
164.344347,50,3,7.7,6.88237,7.8,9,20,16,m
20.149269,83,1,7,6.2,7.2,8.530885,20,23,s
182.968703,89,1,8.3,6.88237,8.009683,9,22,17,s
419.577585,85,1,9.1,7.2,8.3,8.530885,29,4,m
6320.101917,85,3,9.2,6.88237,8.4,10,25,0,s
181.36275,89,1,8.3,6.88237,8.009683,9,22,21,l
487.310443,85,1,8.1,6.88237,8.3,9,45,0,s
189.727805,85,1,6.9,6.6,6.9,8.530885,48,0,s
98.208645,85,1,9.1,7.2,8.3,8.530885,29,11,m
3251.025042,85,1,7.3,6.88237,7.3,8.530885,36,0,s
166.104234,85,1,7.5,6.88237,7.5,9,10,0,m
163.582353,85,1,9.1,7.2,8.3,8.530885,29,12,l
30.835122,50,1,7,6.88237,8.009683,8,21,8,m
10798.18628,88,1,8.8,7.2,8.5,9,22,12,s
95.085583,85,1,9.1,7.2,8.3,8.530885,29,11,l
7947.544815,88,1,8.3,6.88237,8.3,8.530885,26.742663,9,s
264.077947,85,1,9.1,7.2,8.3,8.530885,29,7,l
6166.512998,85,1,7.7,6.4,7.9,8.530885,33,8,s
392.470462,85,1,7.1,6.88237,7.1,8.530885,0,0,s
3388.933501,84,1,9.1,7.2,8.3,8.530885,29,12,s
289.023733,85,1,9.1,7.2,8.3,8.530885,29,14,l
2108.131128,60,1,9.1,7,8.8,8.530885,30,5,m
8310.31082,84,3,9.2,6.88237,8.4,10,25,8,s
181.375346,89,1,8.3,6.88237,8.009683,9,22,18,s
10414.88052,81,1,8.1,6.88237,8.009683,8.530885,48,0,s
2111.663642,60,1,9.1,7,8.8,8.530885,30,14,m
56.878197,85,1,8.3,6.9,8.1,8.530885,27,5,m
195.293145,85,1,6.6,6.2,6.6,5,14,0,s
749.771,60,1,9.1,7,8.8,8.530885,30,13,l
3475.769062,85,1,8.6,6.88237,9.1,8.530885,33,0,s
969.292962,85,1,8.3,6.5,7.8,8.530885,10,4,s
6114.432725,80,1,8.3,6.9,8.1,8.530885,27,0,s
10645.09725,80,1,9.5,6.88237,8.5,12,33,0,l
37.275739,85,1,6.4,6.1,8.009683,8.530885,40,0,s
8041.20455,88,1,9.1,7.2,8.3,8.530885,29,0,s
253.532843,85,1,9.1,7.2,8.3,8.530885,29,12,l
43.782977,60,1,7.8,6.5,7.3,8.530885,20,5,l
1677.33746,60,1,9.1,7,8.8,8.530885,30,0,l
814.974638,87,1,7.7,6.88237,7.3,10,51,0,s
271.629112,85,1,9.1,7.2,8.3,8.530885,29,8,l
1647.096882,60,1,9.1,7,8.8,8.530885,30,7,l
4708.775654,60,1,9.1,7,8.8,8.530885,30,4,s
184.670727,85,1,7.5,6.88237,7.5,9,10,8,m
180.83278,88,1,8,6.8,8.1,9,28,18,m
111.456914,88,1,8,6.6,7.4,8.530885,33,0,l
181.580428,89,1,8.3,6.88237,8.009683,9,22,12,m
2725.499726,86,1,8.2,6.88237,8.3,8.530885,33,647,l
22.88423,85,3,7.5,6.9,7.2,9,10,5,s
134.825769,85,1,9.1,7.2,8.3,8.530885,29,12,l
88.638432,85,1,9.1,7.2,8.3,8.530885,29,4,m
7552.756162,88,1,8.3,6.9,8.1,8.530885,27,0,s
181.668282,89,1,8.3,6.88237,8.009683,9,22,16,m
402.523009,85,1,9.1,7.2,8.3,8.530885,29,0,m
304.516324,60,1,9.1,7,8.8,8.530885,30,16,l
17031.88472,85,1,8,6.7,7.8,8,40,0,s
2107.524187,60,1,9.1,7,8.8,8.530885,30,4,m
240.326347,85,1,7.7,6.6,7.6,8,17,0,s
8733.995819,81,1,9.5,6.88237,8.5,12,33,8,s
5629.442773,60,1,9.1,7,8.8,8.530885,30,16,s
3430.48777,89,1,7,6.88237,8.009683,8.530885,17,0,s
3735.8998,81,1,7.9,6.4,7.4,8,24,0,s
79.81069,85,1,9.1,7.2,8.3,8.530885,29,13,l
524.071884,85,1,7.4,6.6,7.4,10,66,9,s
261.350441,85,1,8.4,6.88237,8.5,8.530885,15,0,s
3805.412492,80,3,8.6,6.88237,7.3,6,15,0,l
415.942117,87,1,8.6,6.88237,9.1,8.530885,33,9,l
181.600403,89,1,8.3,6.88237,8.009683,9,22,16,m
178.521042,81,1,8.1,7.1,8.1,8.530885,18,10,m
11514.09669,81,1,8.2,6.88237,8.009683,8,25,5,s
53.301675,82,3,7,5.8,7.1,8.530885,25,9,l
181.330918,89,1,8.3,6.88237,8.009683,9,22,15,s
258.453098,85,1,9.1,7.2,8.3,8.530885,29,6,l
69.124552,83,3,7.5,6.88237,8.009683,9,20,0,l
3640.94755,80,1,8.6,6.88237,9.1,8.530885,33,0,l
153.56416,81,1,7.6,7,7.8,8.530885,17,0,s
94.672407,85,1,9.1,7.2,8.3,8.530885,29,5,l
127.107261,85,1,9.1,7.2,8.3,8.530885,29,7,m
98.8629,85,1,9.1,7.2,8.3,8.530885,29,7,s
263.544856,88,1,7.2,6.3,7.1,8,15,0,s
81.713726,60,1,7.8,6.5,7.3,8.530885,20,1,s
278.020833,85,1,9.1,7.2,8.3,8.530885,29,8,l
17.571869,85,3,7.5,6.9,7.2,9,10,5,l
212.231378,85,1,7.2,6.88237,8.009683,8.530885,10,80,s
7259.314319,81,3,8.6,6.88237,7.3,6,15,1,m
40.503362,50,1,7,6.88237,8.009683,8,21,8,s
665.779447,81,1,8.1,7.1,8.1,8.530885,18,9,s
41.135531,89,1,8.3,6.88237,8.009683,9,22,20,l
170.323798,82,1,7.2,6.3,7.1,8.530885,23,0,s
17305.94542,85,1,9.5,6.88237,8.5,12,33,0,s
4451.102756,84,1,8.8,7,8,8,35,6,s
348.158789,50,3,7.1,6.5,7.7,10,10,11,s
129.663293,85,1,9.1,7.2,8.3,8.530885,29,8,m
181.867644,89,1,8.3,6.88237,8.009683,9,22,5,l
181.610283,89,1,8.3,6.88237,8.009683,9,22,18,m
707.478625,85,1,6.9,6.88237,8.009683,8,9,3,s
182.245606,85,1,6.4,6,6.3,8.530885,13,0,s
433.418454,85,1,7.9,6.88237,7.2,8.530885,28,0,s
6873.910113,88,1,8.3,7.3,8.1,9,14,0,s
183.120013,89,1,8.3,6.88237,8.009683,9,22,17,s
288.542557,85,1,8.4,6.88237,8.5,8.530885,15,35,s
778.119043,85,1,7.7,6.6,7.6,8,17,31,s
148.96625,88,1,7.6,5.4,7.7,8.530885,30,3,l
210.788965,85,1,7.7,6.88237,7.7,8.530885,26.742663,34,m
135.65207,85,1,9.1,7.2,8.3,8.530885,29,8,m
268.211903,85,1,9.1,7.2,8.3,8.530885,29,7,m
136.786923,85,1,9.1,7.2,8.3,8.530885,29,12,l
172.127373,81,1,8.1,7.1,8.1,8.530885,18,14,l
2070.678869,85,1,8.8,7,8,8,35,0,s
184.937381,85,1,5.5,5.5,5.5,8.530885,41,0,s
94.547295,85,1,9.1,7.2,8.3,8.530885,29,14,l
510.070822,82,1,7.1,6.88237,8.009683,2,21,0,s
764.794502,74,1,7.3,6.88237,8.009683,10,33,0,m
218.580334,60,1,9.1,7,8.8,8.530885,30,5,l
9194.012342,81,1,9.1,7,8.8,8.530885,30,4,s
11133.62275,88,1,9.5,6.88237,8.5,12,33,0,s
167.122914,81,1,8.1,7.1,8.1,8.530885,18,3,l
1829.920474,60,1,9.1,7,8.8,8.530885,30,7,m
116.69643,89,1,8.8,7.2,8.5,9,22,7,m
59.157957,85,1,6.8,6.3,7.3,8.530885,14,32,s
1656.314042,89,1,8.2,6.88237,8.009683,8,25,23.263212,s
5793.670299,80,1,9.1,7.2,8.3,8.530885,29,0,m
1806.550325,60,1,9.1,7,8.8,8.530885,30,11,l
128.615186,85,1,9.1,7.2,8.3,8.530885,29,7,l
190.260588,81,1,8.1,7.1,8.1,8.530885,18,17,s
463.043548,85,1,9.1,7.2,8.3,8.530885,29,13,m
3691.302175,80,3,8.6,6.88237,7.3,6,15,27,l
2107.46305,60,1,9.1,7,8.8,8.530885,30,0,m
56.180407,88,1,8,6.6,7.4,8.530885,33,0,l
16437.01383,85,1,8.1,6.6,7.6,9,13,124,s
204.441207,82,1,7.8,6.88237,8.009683,8,40,0,s
5902.088839,60,1,9.1,7,8.8,8.530885,30,0,m
6974.103699,81,1,9.1,7,8.8,8.530885,30,10,s
49.185447,82,1,8.1,6.8,7.9,8.530885,24,8,m
302.542104,83,1,8,6.88237,8,8.530885,70,301,m
7.174888,85,3,7.5,6.9,7.2,9,10,0,m
31.436787,50,1,7,6.88237,8.009683,8,21,4,m
11.736462,84,1,7.1,6.1,7.1,8.530885,32,26,l
10982.07688,80,1,9.5,6.88237,8.5,12,33,9,m
2546.900652,85,1,7.8,7.1,8,9,59,0,s
17638.19291,85,1,9.5,6.88237,8.5,12,33,4,s
61.571603,85,3,7.5,6.9,7.2,9,10,9,l
2517.624651,89,1,7.6,6.88237,8.009683,9,15,15,s
145.744999,85,1,6.9,6.4,6.7,10,44,20,s
212.965956,85,1,9.1,7.2,8.3,8.530885,29,9,l
287.791786,85,1,8.4,6.88237,8.5,8.530885,15,24,l
97.170768,89,1,8.8,7.2,8.5,9,22,12,m
1675.388579,81,1,7.7,6.88237,8.009683,7,10,3,s
2725.499726,75,9,8.30368,6.88237,8.009683,8.530885,26.742663,0,l
6.495863,84,1,6.7,6.3,6.6,8,11,0,l
211.758452,85,1,7.4,6.2,7.1,8.530885,10,9,s
121.944375,85,1,9.1,7.2,8.3,8.530885,29,7,l
60.773896,82,1,8.1,6.8,7.9,8.530885,24,12,l
46.515103,82,1,8.1,6.8,7.9,8.530885,24,0,m
1519.289587,85,1,7.6,7.2,7.6,8.530885,28,8,s
1753.183838,60,1,9.1,7,8.8,8.530885,30,9,m
53.665631,88,1,7.7,6.5,7.5,8.530885,14,22,m
9981.909331,89,1,8.1,6.88237,8.009683,9,19,0,s
268.776922,85,1,8.2,6.88237,8.009683,6,7,0,m
70.047633,85,1,7,6.88237,7,8.530885,34,49,s
261.643631,60,1,9.1,7,8.8,8.530885,30,11,l
36.249298,60,3,7.8,6.5,7.5,11,28,7,m
319.597686,73,1,8.5,6.88237,8.009683,11,26.742663,17,l
64.423678,83,3,7.5,6.88237,8.009683,9,20,14,l
249.794507,85,1,8.2,6.88237,8.009683,6,7,0,m
22.101959,84,1,6.7,6.3,6.6,8,11,0,m
1034.691671,84,1,7.7,6.6,7.6,8,17,0,s
3530.667449,89,1,8,6.7,7.8,8,40,10,s
164.729347,82,1,5.5,5.2,5.5,4,33,0,s
7508.522193,85,1,8.1,7.1,8.1,8.530885,18,21,s
152.478606,85,1,8.3,6.88237,8.1,8.530885,15,11,s
144.068979,88,1,7.5,6.5,7.3,8.530885,30,3,s
13315.65086,89,1,9.1,7.2,8.3,8.530885,29,7,m
9545.25246,81,1,9.1,7.2,8.3,8.530885,29,0,m
50.181036,85,1,7.1,6.4,6.9,8.530885,28,63,s
2725.499726,84,1,7.1,6.4,7.4,8.530885,33,647,s
344.125859,73,1,8.5,6.88237,8.009683,11,26.742663,16,m
3498.774639,87,1,8.3,7.3,8.1,9,14,0,s
876.126641,85,1,8.5,7.7,8.1,9,13,0,s
234.299683,60,1,7.7,6.1,7.2,8.530885,20,0,l
86.17498,85,1,9.1,7.2,8.3,8.530885,29,12,l
2725.499726,85,5,6.4,6.88237,6.4,8.530885,26.742663,647,m
1631.094851,89,1,8.1,6.88237,7.5,9,38,0,s
142.2453,85,1,8.1,6.88237,8.3,9,45,8,m
4040.878338,87,1,9.1,7.2,8.3,8.530885,29,0,s
6311.997169,88,1,8.3,6.88237,8.009683,9,22,0,s
6421.009166,88,1,8.8,7,8,8,35,0,s
17.729924,50,3,7,6.88237,7.2,11,40,11,l
7644.404784,81,1,8.3,6.5,7.8,8.530885,10,0,s
6415.371792,85,3,7.7,6,7.2,9,2,0,s
46.301503,85,1,8.1,6.88237,8.3,9,45,19,s
131.75248,85,1,9.1,7.2,8.3,8.530885,29,6,l
3457.701009,85,1,8.6,6.88237,9.1,8.530885,33,0,s
734.588287,87,1,6.7,6.2,6.5,8.530885,20,8,s
5968.617469,80,1,9.1,7.2,8.3,8.530885,29,0,s
68.513694,83,3,7.5,6.88237,8.009683,9,20,8,l
3642.447288,80,3,8.6,6.88237,7.3,6,15,47,l
56.845077,88,1,8,6.6,7.4,8.530885,33,12,l
7923.294842,88,1,9.1,7.2,8.3,8.530885,29,0,s
1249.199289,81,1,8.1,6.88237,8.009683,9,19,23.263212,s
48.94346,60,1,7.8,6.5,7.3,8.530885,20,5,m
5104.220773,88,1,8.6,6.88237,9.1,8.530885,33,5,s
2107.604743,60,1,9.1,7,8.8,8.530885,30,3,m
15122.66985,85,1,8.1,6.4,7.7,9,23,0,s
98.904216,89,1,8.8,7.2,8.5,9,22,15,l
206.444802,81,1,8.1,7.1,8.1,8.530885,18,29,m
165.65362,82,1,7.5,6.88237,8.009683,8.530885,10,75,m
32.919669,82,1,7,6.4,6.9,8.530885,21,14,s
10.321564,50,3,7,6.88237,6.9,11,26.742663,133,m
15208.59996,88,1,8.1,6.88237,8.009683,8.530885,48,0,s
14819.92215,88,1,9.1,7,8.8,8.530885,30,5,s
30.769502,50,1,7,6.88237,8.009683,8,21,6,s
126.969167,85,1,7.1,6.3,7.1,9,9,0,s
6249.797637,80,1,9.1,7.2,8.3,8.530885,29,12,s
5994.774484,80,1,8.3,6.9,8.1,8.530885,27,0,s
17028.4773,85,1,9.5,6.88237,8.5,12,33,11,s
388.856875,88,1,6.1,5.6,5.8,8.530885,20,0,s
55.355578,74,3,7.1,6.88237,8.009683,9,15,7,m
7401.647173,81,1,8.3,6.88237,7.6,8.530885,26.742663,80,m
176.067219,85,1,9.1,7.2,8.3,8.530885,29,9,l
112.306519,85,1,9.1,7.2,8.3,8.530885,29,4,m
227.247463,60,1,7.7,6.1,7.2,8.530885,20,9,l
97.834117,85,1,9.1,7.2,8.3,8.530885,29,8,m
8878.600518,82,3,9.2,6.88237,8.4,10,25,17,s
268.197102,85,1,9.1,7.2,8.3,8.530885,29,7,m
4820.676677,60,1,9.1,7,8.8,8.530885,30,0,s
229.783494,85,1,8.4,6.88237,8.5,8.530885,15,0,l
7241.038544,81,3,8.6,6.88237,7.3,6,15,0,l
247.403337,85,1,9.1,7.2,8.3,8.530885,29,8,l
2566.859601,60,1,9.1,7,8.8,8.530885,30,6,m
1755.233191,60,1,9.1,7,8.8,8.530885,30,0,m
3132.785459,85,1,7.4,6.3,7.4,6,73,0,s
32.424796,82,1,7.9,6.3,7.9,6,48,8,l
9646.723656,88,1,8.8,7.2,8.5,9,22,0,s
1317.566402,60,1,8.4,6.9,8.5,8.530885,34,0,s
200.156421,85,1,7.4,6.88237,7.4,8.530885,60,9,m
3386.799453,85,1,8.8,7,8,8,35,124,s
8280.29222,60,1,9.1,7,8.8,8.530885,30,0,s
115.457527,85,1,8.1,6.88237,8,8.530885,30,62,l
1900.336243,85,1,8.8,7,8,8,35,0,s
2567.996818,88,3,9.2,6.88237,8.4,10,25,0,m
189.013823,81,1,8.1,7.1,8.1,8.530885,18,15,l
99.876151,85,1,9.1,7.2,8.3,8.530885,29,7,l
181.497048,89,1,8.3,6.88237,8.009683,9,22,19,m
67.93321,85,3,7.5,6.9,7.2,9,10,5,s
715.66619,86,1,9.1,7.2,8.3,8.530885,29,4,m
181.387609,89,1,8.3,6.88237,8.009683,9,22,13,s
6522.859919,60,1,8.1,6.88237,8.009683,9,19,0,s
17721.92994,85,1,9.5,6.88237,8.5,12,33,0,s
1065.625327,81,1,8.1,6.88237,8.009683,9,19,3,s
16528.95479,89,1,8.3,7.3,8.1,9,14,0,s
92.5111,85,3,7.5,6.9,7.2,9,10,11,l
176.08611,85,1,9.1,7.2,8.3,8.530885,29,6,m
181.307303,89,1,8.3,6.88237,8.009683,9,22,14,l
199.589639,85,1,9.1,7.2,8.3,8.530885,29,11,m
181.764669,89,1,8.3,6.88237,8.009683,9,22,18,l
242.233477,85,1,7.2,7.2,7.3,8.530885,31,0,s
303.036969,81,1,8.1,7.1,8.1,8.530885,18,23,m
161.963523,82,1,8.1,6.8,7.9,8.530885,24,17,m
69.08136,85,1,7.9,6.88237,7.9,8.530885,35,24,s
1751.481864,60,1,9.1,7,8.8,8.530885,30,6,l
173.193709,85,1,8.3,6.9,8.1,8.530885,27,0,s
3665.359907,85,1,8.7,7.7,7.8,6,30,0,s
2625.637432,88,1,7.8,6.8,7.6,5,15,0,s
24.418567,50,1,7,6.88237,8.009683,8,21,10,m
52.991471,89,1,7.6,6.88237,8,9,25,16,m
273.503718,85,1,9.1,7.2,8.3,8.530885,29,10,m
292.630119,85,1,9.1,7.2,8.3,8.530885,29,10,m
3758.920132,80,1,7.8,6.2,7.2,8.530885,33,0,s
10791.8971,89,1,8,6.4,7.7,6,19,0,s
74.021622,84,1,7,6.4,7.3,8.530885,10,0,s
324.36899,89,1,9.5,6.88237,8.5,12,33,44,m
2537.124287,81,1,7.9,6.4,7.4,8,24,0,s
5.432111,85,3,7.5,6.9,7.2,9,10,7,m
227.669886,85,1,9.1,7.2,8.3,8.530885,29,12,l
125.648136,85,1,9.1,7.2,8.3,8.530885,29,8,m
392.552765,85,1,6.9,6.88237,8.009683,8,9,0,s
5466.932687,80,1,8.3,6.5,7.8,8.530885,10,0,s
3006.650407,85,1,7.6,6.88237,7.6,8.530885,25,4,s
3887.520114,80,1,7.5,6.5,7.5,4,11,0,s
153.048653,85,1,8.3,6.9,8.1,8.530885,27,0,m
14252.11943,89,1,9,6.88237,8.5,7,22,8,s
64.631838,82,1,7.6,6.5,7.8,8.530885,13,0,l
897.071559,85,1,9.1,7.2,8.3,8.530885,29,6,s
3057.345709,60,1,9.1,7,8.8,8.530885,30,12,m
52.763143,50,1,7,6.88237,8.009683,8,21,6,m
95.969792,85,1,9.1,7.2,8.3,8.530885,29,7,m
4000.283437,81,1,8.1,6.8,7.9,8.530885,24,60,s
24.447593,50,1,7,6.88237,8.009683,8,21,4,m
3568.105561,80,1,8.6,6.88237,9.1,8.530885,33,13,m
1555.391059,81,1,8.1,6.88237,8.009683,9,19,11,s
7353.446553,81,1,8.8,7.2,8.5,9,22,21,m
158.02838,85,1,8.2,6.88237,8.009683,6,7,13,m
11176.66082,81,1,7.7,6.5,7.5,8.530885,14,0,s
153.347271,89,1,8.8,7.2,8.5,9,22,23,l
223.171773,85,1,9.1,7.2,8.3,8.530885,29,10,l
89.930221,85,1,9.1,7.2,8.3,8.530885,29,0,l
6305.882267,80,1,9.1,7.2,8.3,8.530885,29,7,m
106.616304,85,1,9.1,7.2,8.3,8.530885,29,8,l
48.574557,82,1,6.5,6.88237,6.5,8.530885,33,0,m
94.669765,85,1,9.1,7.2,8.3,8.530885,29,9,s
77.933574,89,1,8,6.7,7.9,8,39,16,s
25.093348,82,1,7.1,6.4,7.1,8.530885,25,26,m
1951.996371,89,1,8.5,6.88237,8.3,11,70,0,m
270.835521,50,1,6.8,6.5,6.9,10,12,48,m
4949.815902,80,1,9,6.88237,8.5,7,22,0,m
412.006316,85,1,7.9,6.88237,7.9,9,40,0,s
261.415399,73,3,6.3,6.88237,8.009683,10,26.742663,46,m
6306.623185,80,1,9.1,7.2,8.3,8.530885,29,3,m
398.267824,85,1,8.2,6.88237,8.009683,6,7,0,s
94.251883,85,1,9.1,7.2,8.3,8.530885,29,7,m
141.320243,85,1,7.4,6.6,7.4,10,66,21,s
165.473111,81,1,8.1,7.1,8.1,8.530885,18,11,l
183.983576,85,1,9.1,7.2,8.3,8.530885,29,9,l
39.073912,74,1,7,6.88237,7,9,25,0,s
2725.499726,84,1,7.8,6.8,7.7,8,24,647,m
1665.705851,60,1,9.1,7,8.8,8.530885,30,9,m
215.503125,81,1,7.8,6.88237,8.009683,9,15,7,s
131.221625,85,1,8.2,6.88237,8.009683,6,7,0,m
133.729001,85,1,9.1,7.2,8.3,8.530885,29,9,l
97.214702,85,1,9.1,7.2,8.3,8.530885,29,6,m
137.194347,85,1,8.2,6.88237,8.009683,6,7,0,m
5838.629534,85,3,9.2,6.88237,8.4,10,25,0,s
208.789335,81,1,8.1,7.1,8.1,8.530885,18,17,m
13212.82226,89,1,9.1,7.2,8.3,8.530885,29,15,s
198.210246,85,1,9.1,7.2,8.3,8.530885,29,4,m
183.247125,89,1,8.3,6.88237,8.009683,9,22,11,s
260.338107,60,1,9.1,7,8.8,8.530885,30,8,l
641.730493,60,1,9.1,7,8.8,8.530885,30,50,l
89.828875,83,3,8.2,6.5,8.1,9,33,14,m
95.824366,85,1,9.1,7.2,8.3,8.530885,29,6,m
182.145096,89,1,8.3,6.88237,8.009683,9,22,18,m
411.770321,85,1,9.1,7.2,8.3,8.530885,29,6,l
306.829412,85,1,9.1,7.2,8.3,8.530885,29,12,l
1952.14927,85,1,9,6.88237,8.5,7,22,1,m
52.449708,74,3,7.9,6.88237,8.3,11,26.742663,0,m
516.100914,86,1,7.7,6.6,7.6,8,17,155,l
17320.842,77,1,8.1,6.88237,8.009683,9,19,0,s
5590.216772,82,1,9.1,7.2,8.3,8.530885,29,0,s
153.512591,85,1,9.1,7.2,8.3,8.530885,29,20,l
392.333048,85,1,7.1,6.88237,8.009683,6,35,23.263212,s
5955.946853,80,1,8.3,6.88237,7.6,8.530885,26.742663,98,s
447.841868,85,1,8.1,6.88237,8.3,9,45,134,s
627.183689,89,1,7.6,6.5,7.3,6,62,0,s
4270.672187,81,1,7,5.8,7,8.530885,15,0,s
13.309306,85,3,6.9,6.88237,6.9,8.530885,26.742663,16,l
255.125581,60,1,9.1,7,8.8,8.530885,30,14,l
151.284523,82,1,8.1,6.8,7.9,8.530885,24,21,m
586.212368,85,1,7,6.3,7,7,44,0,s
119.548818,74,3,7.1,6.88237,8.009683,9,15,0,s
201.547051,81,1,8.1,7.1,8.1,8.530885,18,19,l
11266.4645,87,1,8.2,6.88237,8.009683,8,25,0,s
2120.82277,60,1,9.1,7,8.8,8.530885,30,27,m
9635.75266,81,1,8.8,7.2,8.5,9,22,8,s
135.038504,85,1,9.1,7.2,8.3,8.530885,29,8,m
13077.10069,87,1,8.3,6.88237,8.009683,9,22,0,s
10676.84263,80,1,9.5,6.88237,8.5,12,33,0,s
425.082275,85,1,7.8,6.8,7.7,8,24,0,s
418.927327,60,1,7.7,6.1,7.2,8.530885,20,27,m
263.121642,60,1,9.1,7,8.8,8.530885,30,7,l
135.675917,85,1,9.1,7.2,8.3,8.530885,29,6,m
303.244684,89,1,8.8,7.2,8.5,9,22,5,m
47.434307,88,3,7.2,7.3,7.5,10,10,1957,s
116.810148,85,1,9.1,7.2,8.3,8.530885,29,16,l
307.365096,85,1,9.1,7.2,8.3,8.530885,29,8,l
44.144678,85,1,7.1,6.4,6.9,8.530885,28,0,m
69.675806,83,3,7.5,6.88237,8.009683,9,20,10,l
194.776632,85,1,9.1,7.2,8.3,8.530885,29,17,l
62.532923,85,1,8.3,6.88237,8.1,8.530885,15,4,s
160.508427,82,1,8.1,6.8,7.9,8.530885,24,18,m
9376.324304,88,1,8.1,6.88237,8.009683,9,19,5,s
132.741556,89,1,8.8,7.2,8.5,9,22,0,m
119.781102,85,1,9.1,7.2,8.3,8.530885,29,10,m
98.79173,85,1,8.3,6.9,8.1,8.530885,27,8,m
69.591608,83,3,7.5,6.88237,8.009683,9,20,11,m
227.015531,85,1,6.5,6.88237,8.009683,8.530885,41,95,s
785.874132,85,1,9.1,7.2,8.3,8.530885,29,5,m
2107.817535,60,1,9.1,7,8.8,8.530885,30,4,m
184.395763,60,1,6.5,6.88237,6.5,8.530885,100,17,s
9501.720513,80,1,8.1,6.6,7.6,9,13,0,s
3647.695718,80,1,8.6,6.88237,9.1,8.530885,33,68,m
10888.6711,89,1,8,6.4,7.7,6,19,0,s
116.107619,85,1,9.1,7.2,8.3,8.530885,29,6,m
1657.232162,60,1,9.1,7,8.8,8.530885,30,6,m
209.171226,89,1,8.8,7.2,8.5,9,22,19,l
326.529652,85,1,7.6,6.88237,8.009683,8.530885,60,0,s
181.557504,89,1,8.3,6.88237,8.009683,9,22,20,m
183.865298,89,1,8.3,6.88237,8.009683,9,22,0,s
9382.146429,81,1,9.1,7.2,8.3,8.530885,29,13,s
286.489439,88,1,8.2,6.88237,8.009683,9,47,44,s
6649.809525,88,1,8.4,6.88237,8.3,11,15,5,s
132.41669,85,1,9.1,7.2,8.3,8.530885,29,7,m
183.592661,89,1,8.3,6.88237,8.009683,9,22,9,s
130.814729,85,1,9.1,7.2,8.3,8.530885,29,9,l
451.504568,85,1,9.1,7.2,8.3,8.530885,29,7,m
68.480866,83,3,7.5,6.88237,8.009683,9,20,13,m
11206.95648,81,3,8.6,6.88237,7.3,6,15,0,s
8866.821254,81,1,8.3,6.5,7.8,8.530885,10,0,s
1764.24914,60,1,9.1,7,8.8,8.530885,30,5,m
14462.04756,80,1,8.1,6.88237,8.009683,8.530885,48,6,s
1036.784726,84,1,7.7,6.6,7.6,8,17,12,s
145.287263,83,1,7.3,6.5,7,8.530885,30,11,s
2024.978191,60,1,9.1,7,8.8,8.530885,30,9,m
10790.42713,80,1,9.5,6.88237,8.5,12,33,48,m
143.078669,85,1,7.8,6.8,7.7,8,24,11,m
9461.736635,88,1,9.5,6.88237,8.5,12,33,17,m
1736.184601,60,1,9.1,7,8.8,8.530885,30,5,l
260.77594,60,1,9.1,7,8.8,8.530885,30,10,m
17061.09654,85,1,9.5,6.88237,8.5,12,33,0,s
2548.564983,85,1,7.2,6.88237,7.2,10,20,69,s
89.631957,85,1,9.1,7.2,8.3,8.530885,29,8,l
8628.401183,88,1,9.1,7.2,8.3,8.530885,29,0,s
405.530719,87,3,8.1,6.88237,8.1,8.530885,25,5,s
3538.172656,85,1,8.7,7.7,7.8,6,30,23,s
8241.667956,88,1,8.1,7.1,8.1,8.530885,18,0,s
8138.747509,88,1,8.1,7.1,8.1,8.530885,18,12,s
1225.806143,85,1,7,5.8,7,8.530885,15,21,s
458.279998,81,1,8,7.2,7.8,7,55,3,s
845.342273,85,1,9.1,7.2,8.3,8.530885,29,0,s
3563.220524,80,3,8.6,6.88237,7.3,6,15,0,l
1393.296124,86,1,8.7,7.7,7.8,6,30,0,s
603.292478,85,1,9.1,7.2,8.3,8.530885,29,5,m
260.827705,85,1,9.1,7.2,8.3,8.530885,29,6,m
9531.676644,88,1,7.3,6.88237,7.3,8.530885,21,12,s
3563.279172,80,3,8.6,6.88237,7.3,6,15,0,l
12681.92489,89,1,8.3,6.5,7.8,8.530885,10,0,s
9701.749465,81,1,9.1,7.2,8.3,8.530885,29,10,m
10639.54675,80,1,9.5,6.88237,8.5,12,33,15,m
2443.04523,88,1,7.6,6.88237,8.009683,8,33,4,s
50.779534,85,3,7.5,6.9,7.2,9,10,4,l
271.390377,60,1,9.1,7,8.8,8.530885,30,17,m
117.668318,85,1,9.1,7.2,8.3,8.530885,29,7,m
5565.601558,74,1,8.5,6.88237,8.009683,11,26.742663,6,l
278.042727,85,1,8.1,6.88237,8.3,9,45,58,m
826.29725,85,1,5.1,5.7,5.1,8.530885,23,6,s
6019.980398,60,1,9.1,7,8.8,8.530885,30,6,m
140.868243,89,1,8.8,7.2,8.5,9,22,24,l
111.003051,86,1,8.3,6.5,7.8,8.530885,10,0,l
171.124984,85,1,8.2,6.88237,8.009683,6,7,154,l
111.721879,89,1,7.7,6.88237,8.009683,8,22,13,s
854.643519,85,1,9.1,7.2,8.3,8.530885,29,18,m
3838.673261,80,3,8.6,6.88237,7.3,6,15,20,m
35.347275,85,1,7.9,6.88237,7.9,8.530885,35,0,l
2224.732091,85,1,9,6.88237,8.5,7,22,0,s
132.38832,85,1,9.1,7.2,8.3,8.530885,29,5,l
367.584113,85,1,5.5,5.5,5.5,8.530885,41,0,s
1295.082654,84,1,8.4,6.88237,8.4,8.530885,26.742663,11,s
39.280873,85,1,8.2,6.88237,8.2,8.530885,26.742663,100,l
130.832173,85,1,9.1,7.2,8.3,8.530885,29,5,l
206.54428,81,1,8.1,7.1,8.1,8.530885,18,27,m
5925.873776,60,1,9.1,7,8.8,8.530885,30,0,m
4989.973995,80,1,9,6.88237,8.5,7,22,12,m
9517.699814,80,1,8.1,6.88237,7.5,9,38,0,s
2354.871683,88,3,9.2,6.88237,8.4,10,25,9,m
11.331405,50,1,6.6,6.88237,8.009683,7,7,0,m
49.449567,86,1,8.3,7.3,8.1,9,14,10,m
199.541362,85,1,9.1,7.2,8.3,8.530885,29,11,l
3533.09232,80,1,8.6,6.88237,9.1,8.530885,33,0,l
1683.565314,88,1,8.2,6.88237,8.009683,8,32,0,s
3657.678895,60,1,9.1,7,8.8,8.530885,30,0,s
989.966403,82,1,7.8,6.88237,8.1,8.530885,35,126,s
7378.712083,81,3,8.6,6.88237,7.3,6,15,9,l
43.97233,60,1,7.8,6.5,7.3,8.530885,20,10,l
420.742246,85,1,9.1,7.2,8.3,8.530885,29,5,l
87.256282,85,1,6.8,6.1,7,8.530885,25,4,s
16212.23817,89,1,8.3,6.5,7.8,8.530885,10,0,s
3777.703533,80,1,8.6,6.88237,9.1,8.530885,33,0,m
9701.983017,81,1,9.1,7.2,8.3,8.530885,29,6,m
133.995828,89,1,8,6.7,7.9,8,39,0,m
496.508016,85,1,9.1,7.2,8.3,8.530885,29,1,s
10174.36231,88,1,8.1,6.88237,8.009683,9,19,4,s
130.422109,85,1,9.1,7.2,8.3,8.530885,29,7,m
43.627383,60,1,7.8,6.5,7.3,8.530885,20,9,l
6531.217328,85,3,9.2,6.88237,8.4,10,25,0,s
617.465303,81,1,7.4,6.88237,8.009683,8.530885,10,3,s
2725.499726,60,1,9.1,7,8.8,8.530885,30,647,l
1711.167511,60,1,9.1,7,8.8,8.530885,30,6,l
232.445346,85,1,8.4,6.88237,8.5,8.530885,15,92,l
20.039626,86,1,6.2,5.3,6.2,8.530885,5,0,s
401.770529,60,3,7.7,6.88237,8.009683,4,15,6,s
233.611681,85,1,8.2,6.88237,8.009683,6,7,0,s
17.920459,84,1,6.7,6.3,6.6,8,11,5,m
1158.238596,88,1,8.2,6.88237,8.009683,9,47,23.263212,s
62.280742,89,1,8,6.7,7.9,8,39,13,m
505.879074,85,1,9.1,7.2,8.3,8.530885,29,9,m
1657.617562,60,1,9.1,7,8.8,8.530885,30,7,m
168.913546,85,1,7.5,6.88237,7.5,8.530885,0,26,s
4474.341843,80,3,9.2,6.88237,8.4,10,25,0,s
5548.256832,80,1,8.2,6.88237,7.8,9,30,0,s
123.444805,85,1,9.1,7.2,8.3,8.530885,29,12,m
129.654731,85,1,9.1,7.2,8.3,8.530885,29,8,l
9590.189465,81,1,9.1,7.2,8.3,8.530885,29,4,m
2.951256,88,3,5.9,6.88237,8.009683,7,26.742663,5,s
217.251007,85,1,8.2,6.88237,8.009683,6,7,27,s
112.236388,85,1,8.1,6.88237,8.3,9,45,0,m
491.44321,87,1,7.6,6.88237,8.009683,8,33,23.263212,s
7024.815072,88,1,9.1,7.2,8.3,8.530885,29,0,s
6305.637946,60,1,9.1,7,8.8,8.530885,30,0,l
10.843866,50,1,6.6,6.88237,8.009683,7,7,2,s
273.202849,85,1,9.1,7.2,8.3,8.530885,29,7,l
7661.693763,86,1,9.1,7,8.8,8.530885,30,7,s
17061.50417,85,1,9.5,6.88237,8.5,12,33,91,m
248.535087,85,1,9.1,7.2,8.3,8.530885,29,14,l
281.125569,85,1,8,6.88237,8,5,26.742663,0,m
16965.63403,85,1,9.5,6.88237,8.5,12,33,6,m
17.764239,82,1,6.9,7.3,6.9,8.530885,35,0,m
146.638031,85,1,6.9,6.7,6.9,8.530885,10,0,s
152.922478,85,1,9.1,7.2,8.3,8.530885,29,9,m
1736.457152,81,1,7.1,6.4,7.1,8.530885,25,9,s
16992.97142,85,1,9.5,6.88237,8.5,12,33,33,l
203.514134,81,1,8.1,7.1,8.1,8.530885,18,31,m
16553.48673,85,1,8,6.6,7.3,7,46,40,s
4497.740194,87,1,8.3,6.5,7.8,8.530885,10,14,s
239.68557,85,1,9.1,7.2,8.3,8.530885,29,12,l
4127.598457,88,3,8.6,6.88237,7.3,6,15,0,m
115.265439,85,1,9.1,7.2,8.3,8.530885,29,10,l
79.187228,60,1,7.8,6.5,7.3,8.530885,20,11,m
198.272571,85,1,9.1,7.2,8.3,8.530885,29,15,l
2725.499726,85,5,6.4,6.88237,6.4,8.530885,26.742663,647,m
217.269287,85,1,8.2,6.88237,8.009683,6,7,101,m
922.232986,81,1,6.9,6.88237,8.009683,8.530885,20,5,s
12810.73516,81,1,8.5,6.88237,8.5,11,25,0,s
261.438957,60,1,9.1,7,8.8,8.530885,30,11,l
100.001528,85,1,7,6.3,7,7,44,0,s
1102.229169,85,1,7.1,6.4,6.9,8.530885,28,6,s
2108.42345,60,1,9.1,7,8.8,8.530885,30,0,m
4169.534788,80,1,7.7,6.5,7.5,8.530885,14,5,s
97.139882,85,1,9.1,7.2,8.3,8.530885,29,9,m
103.884335,89,1,7.6,6.88237,8.009683,7,38,0,s
758.70003,88,1,7.7,6.5,7.5,8.530885,14,7,s
10105.64041,81,1,8.8,7,8,8,35,3,s
244.70487,85,1,9.1,7.2,8.3,8.530885,29,7,l
11173.50093,80,1,9.5,6.88237,8.5,12,33,0,m
201.379402,81,1,8.1,7.1,8.1,8.530885,18,26,l
800.239953,85,1,9.1,7.2,8.3,8.530885,29,17,m
75.48049,85,1,9.1,7.2,8.3,8.530885,29,8,l
93.974713,85,1,9.1,7.2,8.3,8.530885,29,7,s
171.721854,81,1,8.1,7.1,8.1,8.530885,18,9,l
296.074275,85,1,8.1,6.88237,8.3,9,45,5,s
16975.58202,87,1,8.1,6.88237,8.009683,8.530885,48,0,s
6382.9011,87,1,9.1,7.2,8.3,8.530885,29,0,s
5931.447384,80,1,9.1,7.2,8.3,8.530885,29,25,m
49.25015,83,3,7.5,6.88237,8.009683,9,20,12,m
17280.43863,85,1,9.5,6.88237,8.5,12,33,0,m
715.472773,86,1,9.1,7.2,8.3,8.530885,29,4,m
2616.419961,85,1,8.8,7,8,8,35,0,s
182.362133,89,1,8.3,6.88237,8.009683,9,22,11,m
2725.499726,85,1,7.7,6.88237,7.7,8.530885,26.742663,647,m
106.54392,85,1,9.1,7.2,8.3,8.530885,29,4,l
8268.40016,88,1,9.1,7.2,8.3,8.530885,29,0,s
7575.6384,88,3,9.2,6.88237,8.4,10,25,0,s
110.435607,85,1,8.3,6.9,8.1,8.530885,27,4,m
1938.911674,88,1,7.9,6.88237,8.009683,4,14,0,s
823.876823,81,1,7.2,6.88237,8.009683,8.530885,34,5,s
7603.099262,88,1,8.5,7.7,8.1,9,13,0,s
6117.586596,80,1,9.1,7.2,8.3,8.530885,29,18,s
683.857725,85,1,5.6,6.88237,8.009683,8.530885,11,0,s
3324.197466,85,1,8.3,6.88237,8.3,10,20,0,s
36.081897,89,1,8.8,7.2,8.5,9,22,24,l
133.140516,85,1,8.3,6.9,8.1,8.530885,27,5,m
7391.270868,81,1,8.8,7.2,8.5,9,22,23,m
612.173309,50,3,7.1,6.5,7.7,10,10,0,s
101.08812,85,1,9.1,7.2,8.3,8.530885,29,7,l
8906.438795,88,1,8.8,7.2,8.5,9,22,5,s
3390.512067,85,1,7.6,6.4,7.6,6,50,0,s
71.225759,82,1,7.6,6.5,7.8,8.530885,13,0,m
70.2175,85,1,8.1,6.88237,8,8.530885,30,10,m
136.068187,85,1,9.1,7.2,8.3,8.530885,29,8,l
94.916707,85,1,9.1,7.2,8.3,8.530885,29,8,l
119.260456,85,1,6.5,6.88237,8.009683,8.530885,20,26,s
335.743052,85,1,8.4,6.88237,8.5,8.530885,15,0,m
151.141323,82,1,7.2,6.88237,8.009683,6,33,0,s
181.60128,89,1,8.3,6.88237,8.009683,9,22,20,m
55.218655,85,3,7.5,6.9,7.2,9,10,4,m
126.225529,73,1,8.5,6.88237,8.009683,11,26.742663,20,l
181.515295,85,1,6.5,6,6.5,8.530885,10,100,s
9246.448076,88,1,8.5,7.7,8.1,9,13,0,s
181.596197,89,1,8.3,6.88237,8.009683,9,22,15,m
80.629863,85,1,9.1,7.2,8.3,8.530885,29,11,l
460.378087,85,1,8.1,6.88237,8.3,9,45,45,s
16972.87248,85,1,9.1,6.88237,8.7,11,26.742663,60,m
9399.871804,82,1,7.7,6.5,7.5,8.530885,14,0,s
163.564631,85,1,7,5.8,7,8.530885,15,0,s
261.68107,60,1,9.1,7,8.8,8.530885,30,0,l
2725.499726,85,1,8.3,6.88237,8.1,8.530885,15,647,m
338.199238,85,1,9.1,7.2,8.3,8.530885,29,8,l
5228.955031,80,1,8.8,7,8,8,35,0,s
364.093322,60,1,9.1,7,8.8,8.530885,30,6,m
11101.86879,89,3,9.2,6.88237,8.4,10,25,8,s
72.784983,85,1,7.7,6.6,7.6,8,17,0,l
45.236007,85,1,7.1,6.4,6.9,8.530885,28,0,s
2725.499726,85,3,7.6,6.88237,7.3,8.530885,10,647,s
2400.995693,85,1,8.8,7,8,8,35,6,s
99.627497,85,1,9.1,7.2,8.3,8.530885,29,5,l
965.301883,86,1,8.8,7,8,8,35,23.263212,s
50.674901,50,3,7.7,6.88237,7.8,9,20,6,m
338.505544,81,1,7.3,6.88237,8.009683,7,20,23.263212,s
16990.47152,85,1,9.5,6.88237,8.5,12,33,0,m
58.179162,85,1,6.6,6.2,6.6,5,14,5,s
3903.498316,85,3,8.2,6.5,8.1,9,33,16,s
9231.586111,88,1,7.9,6.4,7.4,8,24,20,s
99.519621,85,1,9.1,7.2,8.3,8.530885,29,7,l
99.092846,86,1,8.3,6.5,7.8,8.530885,10,9,l
4521.661646,81,1,9.1,7.2,8.3,8.530885,29,0,s
7096.58582,81,1,9.1,7,8.8,8.530885,30,0,s
10494.13043,81,1,8.2,6.88237,8.009683,8,25,0,s
160.576458,85,1,6.4,6,6.4,8.530885,10,0,s
273.721376,85,1,9.1,7.2,8.3,8.530885,29,10,l
1562.890401,87,3,8.6,6.88237,7.3,6,15,14,s
13208.11016,89,1,9.1,7.2,8.3,8.530885,29,5,m
10964.2588,81,1,9.1,7.2,8.3,8.530885,29,1,s
25.13818,88,1,7.7,6.5,7.5,8.530885,14,25,l
1822.636149,60,1,9.1,7,8.8,8.530885,30,3,l
5911.177795,81,1,9.1,7,8.8,8.530885,30,0,s
3282.388028,88,1,8.2,6.88237,8.009683,8,32,0,s
2728.403317,84,1,7.8,7.1,8,9,59,0,s
125.160592,60,1,7.8,6.5,7.3,8.530885,20,13,m
302.026767,85,1,8.3,6.88237,8.1,8.530885,15,0,m
30.314879,50,1,7,6.88237,8.009683,8,21,7,s
50.797047,85,3,7.5,6.9,7.2,9,10,0,m
50.297622,83,3,7.5,6.88237,8.009683,9,20,18,m
6029.783606,80,1,8.1,6.88237,8.009683,9,19,0,s
105.297904,85,1,9.1,7.2,8.3,8.530885,29,4,l
46.840803,82,1,7.5,6.4,7.3,8.530885,33,26,l
98.250655,86,1,8.3,6.5,7.8,8.530885,10,0,l
4798.523664,80,1,9,6.88237,8.5,7,22,3,s
222.457438,60,1,7.7,6.1,7.2,8.530885,20,16,l
6772.187553,88,1,8.3,7.3,8.1,9,14,12,s
8310.15026,84,1,7.6,7,7.8,8.530885,17,0,s
16368.50724,85,1,8.3,6.88237,8.3,11,40,10,m
874.397173,81,1,7.6,6.6,7.5,8.530885,17,0,s
260.997717,60,1,9.1,7,8.8,8.530885,30,9,l
267.888076,85,1,9.1,7.2,8.3,8.530885,29,6,l
133.573649,60,1,7.8,6.5,7.3,8.530885,20,16,m
41.411188,83,3,7.5,6.88237,8.009683,9,20,7,m
10287.9513,80,1,8.5,6.88237,8.5,11,25,0,m
1736.804733,60,1,9.1,7,8.8,8.530885,30,8,l
10864.9566,82,1,9.5,6.88237,8.5,12,33,7,s
489.299053,85,1,8.4,6.88237,8.4,8.530885,26.742663,9,l
212.19636,85,1,9.1,7.2,8.3,8.530885,29,14,l
4038.2898,85,1,8.6,6.88237,9.1,8.530885,33,46,s
1192.20757,88,1,7.9,6.88237,8.009683,4,14,215,s
2015.854196,60,1,9.1,7,8.8,8.530885,30,7,l
9146.793245,81,1,8.3,6.5,7.8,8.530885,10,0,s
108.467238,88,1,7.7,6.5,7.5,8.530885,14,18,l
1470.134546,81,1,7.7,6.88237,8.009683,8.530885,37,0,s
639.98935,85,1,9.1,7.2,8.3,8.530885,29,5,m
7722.619015,88,1,8.3,6.9,8.1,8.530885,27,0,s
2651.37706,85,1,8.8,7,8,8,35,0,s
133.597352,60,1,7.8,6.5,7.3,8.530885,20,16,s
126.282147,85,1,9.1,7.2,8.3,8.530885,29,8,l
4420.689013,88,1,8.3,6.88237,8.009683,9,22,23.263212,s
3300.150771,80,1,9,6.88237,8.5,7,22,0,m
1754.788734,60,1,9.1,7,8.8,8.530885,30,0,m
534.647311,60,1,9.1,7,8.8,8.530885,30,0,m
17023.74174,85,1,9.5,6.88237,8.5,12,33,0,m
86.097221,85,1,7.5,6.88237,8.009683,5,40,0,m
66.043872,81,3,7.1,6.88237,7.2,4,12,0,l
18.258973,60,1,8.6,7.2,8.4,8.530885,30,0,m
17.435565,87,1,5.7,6.8,5.7,8.530885,2,0,s
1547.643953,81,1,7.6,7,7.6,8.530885,34,0,s
24.174835,50,1,7,6.88237,8.009683,8,21,5,m
4937.639407,80,1,8.8,7,8,8,35,6,s
13234.63682,89,1,9.1,7.2,8.3,8.530885,29,6,m
1385.656822,60,1,9.1,7,8.8,8.530885,30,0,m
45.867587,89,1,8.8,7.2,8.5,9,22,20,l
435.235195,82,1,7.7,6.88237,8.009683,8.530885,37,7,s
5993.134423,88,1,8.8,7,8,8,35,0,s
790.749685,60,1,9.1,7,8.8,8.530885,30,4,s
153.449583,85,1,9.1,7.2,8.3,8.530885,29,9,m
219.738953,89,1,8.3,6.88237,8.009683,9,22,11,l
245.611475,60,1,7.8,5.7,7.2,8.530885,18,5,l
17615.02317,89,1,9.1,7,8.8,8.530885,30,0,s
65.232873,86,1,6,5.9,6.1,8.530885,21,9,s
6995.392513,81,1,8.8,7,8,8,35,1,s
92.932302,85,1,8.3,6.9,8.1,8.530885,27,5,m
79.541437,85,1,8.2,6.88237,8.2,8.530885,26.742663,50,l
49.246512,85,1,8.3,6.88237,8.1,8.530885,15,120,m
27.403736,50,1,7,6.88237,8.009683,8,21,8,s
408.49326,85,1,7.8,6.8,7.7,8,24,0,s
32.519784,87,1,8,6.88237,8,7,26.742663,0,l
176.112191,85,1,9.1,7.2,8.3,8.530885,29,7,m
54.762084,60,1,8.6,7.2,8.4,8.530885,30,0,s
262.865109,85,1,9.1,7.2,8.3,8.530885,29,6,m
11865.55793,87,1,8.8,7.2,8.5,9,22,5,s
287.588468,88,1,7.2,6.3,7.1,8,15,0,s
6047.361755,85,1,7.7,6.4,7.9,8.530885,33,4,s
7047.393577,81,1,9.1,7,8.8,8.530885,30,0,s
2279.722195,60,1,9.1,7,8.8,8.530885,30,9,m
64.276895,89,1,8,6.7,7.9,8,39,12,l
7.078967,85,3,7.5,6.9,7.2,9,10,6,m
2725.499726,88,0,8.30368,6.88237,8.009683,8.530885,26.742663,0,l
448.942276,87,3,9.2,6.88237,8.4,10,25,14,l
7887.797024,88,1,8.1,7.1,8.1,8.530885,18,0,s
371.968371,74,1,7.5,6.88237,7.6,8.530885,15,0,s
125.979624,86,1,8.3,6.5,7.8,8.530885,10,0,l
13213.11165,89,1,9.1,7.2,8.3,8.530885,29,5,m
4219.41078,85,1,8.6,6.88237,9.1,8.530885,33,8,s
9424.884121,81,1,9.1,7.2,8.3,8.530885,29,0,m
1034.712657,84,1,7.7,6.6,7.6,8,17,7,m
78.473451,82,1,7.3,6.88237,7.3,8.530885,26.742663,20,s
46.786375,83,3,7.5,6.88237,8.009683,9,20,7,m
350.288918,85,1,8.4,6.88237,8.5,8.530885,15,0,m
6.739501,85,3,7.5,6.9,7.2,9,10,7,m
181.453663,89,1,8.3,6.88237,8.009683,9,22,14,s
13155.67286,89,1,9.1,7.2,8.3,8.530885,29,0,l
396.459192,85,1,7,6.88237,8.009683,8.530885,50,0,s
181.312462,89,1,8.3,6.88237,8.009683,9,22,14,s
4719.7878,60,1,9.1,7,8.8,8.530885,30,0,s
11423.22879,88,1,9.5,6.88237,8.5,12,33,0,s
543.257411,85,1,9.1,7.2,8.3,8.530885,29,7,m
2050.070425,82,1,8.1,6.88237,8.009683,9,19,12,s
199.229942,89,1,8.8,7.2,8.5,9,22,21,m
1397.555307,81,1,7.6,6.4,7.3,8.530885,45,0,s
3621.753868,80,3,8.6,6.88237,7.3,6,15,33,l
1529.658806,88,1,7.8,6.8,7.6,5,15,23.263212,s
2055.25906,89,1,8.3,6.88237,8.3,11,40,9,s
3849.226115,80,1,6.5,7,6.5,8.530885,40,11,s
184.559722,85,1,9.1,7.2,8.3,8.530885,29,8,m
12856.21925,87,1,8.3,6.88237,8.009683,9,22,0,s
2701.704354,60,1,8.4,6.9,8.5,8.530885,34,12,s
172.023403,85,1,5.7,5.4,5.1,8.530885,33,0,s
268.66282,87,3,9.2,6.88237,8.4,10,25,0,m
1831.796542,60,1,9.1,7,8.8,8.530885,30,6,m
240.780607,60,1,7.8,5.7,7.2,8.530885,18,12,l
3630.691005,80,3,8.6,6.88237,7.3,6,15,93,l
187.909806,81,1,8.1,7.1,8.1,8.530885,18,0,l
156.936105,85,1,7.8,6.8,7.7,8,24,85,s
11170.17756,80,1,9.5,6.88237,8.5,12,33,0,m
181.671965,89,1,8.8,7.2,8.5,9,22,27,l
6120.999747,80,1,9.1,7.2,8.3,8.530885,29,13,m
97.451448,85,1,9.1,7.2,8.3,8.530885,29,9,m
101.837998,85,1,7.5,6.88237,8.009683,5,40,0,s
47.348278,89,1,8.3,6.88237,8.009683,9,22,15,l
1673.876719,89,1,8.1,6.88237,7.5,9,38,10,s
440.132541,89,1,8.2,6.88237,8.2,11,26.742663,62,s
172.883384,83,3,8.2,6.5,8.1,9,33,34,l
58.302615,85,1,7.5,6.88237,7.5,8.530885,26.742663,249,l
40.873825,80,3,6.5,5.8,6.1,6,9,11,s
153.314597,85,1,7.6,6.88237,7.6,8.530885,30,5,s
222.200083,60,1,7.7,6.1,7.2,8.530885,20,10,m
207.544934,85,1,9.1,7.2,8.3,8.530885,29,10,l
6113.12867,80,1,7.8,7.1,8,9,59,6,s
253.071674,89,1,8.3,6.88237,8.009683,9,22,10,l
97.859445,83,1,7.8,6.88237,8.009683,8,23,24,l
30.750828,50,1,7.6,6.3,7.8,10,13,10,s
17007.30606,85,1,9.5,6.88237,8.5,12,33,0,m
120.886452,85,1,9.1,7.2,8.3,8.530885,29,6,m
267.340611,85,1,7.6,6.88237,7.3,8.530885,74,0,s
13.923401,84,1,7.1,6.1,7.1,8.530885,32,7,m
4052.101775,88,1,7.9,6.6,7.6,6,33,0,s
93.356111,85,3,7.5,6.9,7.2,9,10,5,m
82.893367,85,1,8.3,6.9,8.1,8.530885,27,11,m
88.131307,85,1,9.1,7.2,8.3,8.530885,29,7,m
115.057412,83,3,8.2,6.5,8.1,9,33,29,m
157.564538,85,1,7.1,6.88237,7.1,8.530885,0,0,s
18.582837,85,3,6.9,6.88237,6.9,8.530885,26.742663,39,m
5818.87637,85,3,9.2,6.88237,8.4,10,25,46,s
176.03948,85,1,8.3,6.9,8.1,8.530885,27,0,m
48.82344,60,1,7.8,6.5,7.3,8.530885,20,8,l
51.048531,85,3,7.5,6.9,7.2,9,10,7,l
71.153776,82,1,7.6,6.5,7.8,8.530885,13,12,s
5323.468687,80,1,8.3,6.5,7.8,8.530885,10,0,s
407.264167,84,1,7.6,7.2,7.6,8.530885,28,7,s
2152.505793,85,1,9,6.88237,8.5,7,22,0,s
275.52633,85,1,9.1,7.2,8.3,8.530885,29,8,l
1721.15009,88,1,7.6,6.88237,8.009683,8,33,20,s
93.073764,85,1,9.1,7.2,8.3,8.530885,29,8,l
22.440809,87,3,8.2,6.88237,8.6,11,60,6,l
5083.587358,80,1,9.1,7.2,8.3,8.530885,29,0,s
2851.736376,85,1,8.8,7,8,8,35,9,s
315.224517,86,1,7.7,6.88237,7.3,10,51,0,m
20.403769,85,1,7.7,6.5,7.7,8,48,26,m
40.153597,87,3,9.2,6.88237,8.4,10,25,28,l
4103.409632,88,1,7.9,6.88237,8.009683,10,26.742663,5,s
429.212295,85,1,9.1,7.2,8.3,8.530885,29,11,m
95.585244,85,1,9.1,7.2,8.3,8.530885,29,7,m
410.981298,85,1,9.1,7.2,8.3,8.530885,29,7,m
5511.023933,80,1,7.6,6.4,7.3,8.530885,45,5,s
12783.33612,87,1,8.2,6.88237,8.009683,8,25,8,s
21.607805,50,3,7,6.88237,7.2,11,40,423,m
383.809733,85,1,8.2,6.88237,8.009683,6,7,7,s
67.94171,85,1,6.2,5.8,6.2,8,15,71,s
190.928582,85,1,7.1,6.88237,8.009683,8.530885,26.742663,0,s
17040.01124,85,1,9.5,6.88237,8.5,12,33,12,s
272.575196,85,1,9.1,7.2,8.3,8.530885,29,7,l
617.351298,60,1,9.1,7,8.8,8.530885,30,33,s
279.242824,85,1,8.4,6.88237,8.5,8.530885,15,0,s
10154.29868,81,3,8.6,6.88237,7.3,6,15,0,m
587.349633,85,1,7.5,6.88237,7.5,9,10,0,s
3884.206516,80,3,8.6,6.88237,7.3,6,15,32,l
941.981346,85,1,8.5,7.7,8.1,9,13,80,s
122.867409,85,1,9.1,7.2,8.3,8.530885,29,8,m
258.149307,85,1,9.1,7.2,8.3,8.530885,29,4,s
109.367358,86,1,8.3,6.5,7.8,8.530885,10,0,m
19.412111,50,1,6.6,6.88237,6.6,11,26.742663,7,s
891.124029,85,1,9.1,7.2,8.3,8.530885,29,4,s
108.134358,82,1,7.1,6.4,7.1,8.530885,25,25,s
104.268155,85,1,9.1,7.2,8.3,8.530885,29,10,m
186.292172,88,1,6.9,6.88237,6.9,8.530885,26.742663,0,s
281.624921,60,1,7.7,6.1,7.2,8.530885,20,14,m
17481.34293,85,1,9.5,6.88237,8.5,12,33,0,m
5311.093323,60,1,8.4,6.9,8.5,8.530885,34,72,s
2301.055011,85,1,8.4,6.88237,8.3,11,15,69,s
2021.666661,60,1,9.1,7,8.8,8.530885,30,0,l
79.282767,60,1,7.8,6.5,7.3,8.530885,20,7,l
1776.305497,60,1,9.1,7,8.8,8.530885,30,6,m
17462.03818,85,1,9.5,6.88237,8.5,12,33,58,m
46.291973,82,1,8.1,6.8,7.9,8.530885,24,13,m
3582.383591,89,1,8.8,7.2,8.5,9,22,3,m
907.65908,85,1,8.3,6.88237,8.009683,10,40,69,s
6069.418161,85,1,7.9,5.8,7.9,8.530885,33,0,s
490.271465,85,1,9.1,7.2,8.3,8.530885,29,8,m
135.033499,85,1,9.1,7.2,8.3,8.530885,29,6,l
898.354134,85,1,9.1,7.2,8.3,8.530885,29,7,m
174.398842,81,1,8.1,7.1,8.1,8.530885,18,4,l
50.210755,83,3,7.5,6.88237,8.009683,9,20,0,m
210.371054,81,1,8.1,7.1,8.1,8.530885,18,0,s
56.321796,86,1,6.2,5.3,6.2,8.530885,5,37,s
17019.41431,89,1,9.1,7.2,8.3,8.530885,29,28,s
2685.788156,87,1,7,6.88237,8.009683,8.530885,29,8,s
40.081709,89,1,8.8,7.2,8.5,9,22,16,l
221.85706,60,1,7.7,6.1,7.2,8.530885,20,0,l
15086.70639,85,1,8.8,8.2,8.6,9,20,91,s
16919.69036,85,1,9.5,6.88237,8.5,12,33,535,l
479.287907,85,1,9.1,7.2,8.3,8.530885,29,7,m
16954.27264,85,1,9.5,6.88237,8.5,12,33,0,m
11749.56371,80,1,8,6.7,7.9,8,39,0,s
16972.76531,85,1,9.5,6.88237,8.5,12,33,10,l
40.409828,89,1,8.3,6.88237,8.009683,9,22,10,m
242.707832,85,1,9.1,7.2,8.3,8.530885,29,8,l
44.89466,82,3,7,5.8,7.1,8.530885,25,11,m
91.468794,85,1,7.5,6.88237,7.5,7,30,6,s
466.481503,88,1,8.2,6.88237,8.009683,9,47,0,s
61.609895,89,1,8,6.7,7.9,8,39,0,m
809.12162,50,1,6.8,6.5,6.9,10,12,9,s
200.123021,85,1,9.1,7.2,8.3,8.530885,29,17,l
1013.032693,85,1,7.5,6.88237,7.5,9,10,0,m
13.706024,84,1,7.1,6.1,7.1,8.530885,32,9,m
134.85771,85,1,8.2,6.88237,8.009683,6,7,0,m
207.099937,89,1,7.8,6.88237,7.8,8,47,10,s
2238.894707,82,1,8.1,6.88237,8.009683,9,19,0,s
262.006641,60,1,9.1,7,8.8,8.530885,30,13,m
17656.79398,85,1,9.5,6.88237,8.5,12,33,4,m
20.022504,50,1,7.6,6.3,7.8,10,13,2,m
260.175115,85,1,8.4,6.88237,8.5,8.530885,15,48,s
284.987683,85,1,9.1,7.2,8.3,8.530885,29,13,m
133.387616,85,1,9.1,7.2,8.3,8.530885,29,7,s
45.884513,85,3,7.5,6.9,7.2,9,10,7,s
118.869436,85,1,7.2,6.7,7,8.530885,14,67,s
197.131574,85,1,7,6.2,7,8.530885,29,0,s
3584.22117,80,1,8.3,7.3,8.1,9,14,0,s
119.729129,88,1,7.3,6.88237,8.009683,8.530885,28,7,l
17599.96051,85,1,9.5,6.88237,8.5,12,33,0,m
1239.859917,85,1,9.1,7.2,8.3,8.530885,29,23.263212,s
14889.75832,85,1,8.1,6.6,7.6,9,13,4,s
169.058093,81,1,8.1,7.1,8.1,8.530885,18,9,l
3999.754244,85,3,7,5.8,7.1,8.530885,25,0,s
225.352834,85,1,7.7,6.5,7.7,8,48,0,s
154.597798,85,1,8.3,6.88237,8.1,8.530885,15,9,m
511.202323,85,1,7.2,6.6,7.2,8.530885,26.742663,19,s
39.492661,50,3,7.7,6.88237,7.8,9,20,4,m
465.627356,85,1,9.1,7.2,8.3,8.530885,29,14,m
154.027417,85,1,7,6.88237,7,8.530885,34,57,s
212.564714,85,1,9.1,7.2,8.3,8.530885,29,13,l
27.645347,50,1,7,6.88237,8.009683,8,21,6,m
241.06933,89,1,8.8,7.2,8.5,9,22,6,l
5370.886903,80,1,7.6,6.4,7.3,8.530885,45,0,s
182.073358,89,1,8.3,6.88237,8.009683,9,22,16,l
5944.947342,60,1,9.1,7,8.8,8.530885,30,0,m
4372.079971,60,1,9.1,7,8.8,8.530885,30,15,m
133.054373,85,1,9.1,7.2,8.3,8.530885,29,7,l
3569.56696,89,1,8.8,7.2,8.5,9,22,0,m
3981.307089,80,1,7.9,6.6,7.6,6,33,5,s
183.063702,89,1,8.3,6.88237,8.009683,9,22,17,l
645.398076,60,1,9.1,7,8.8,8.530885,30,11,l
164.176673,85,1,6.4,6.88237,8.009683,8.530885,12,0,s
10370.00728,81,1,8.3,6.88237,8.3,11,40,14,m
2455.024274,85,1,7.5,6.5,7.5,4,11,0,s
116.482454,85,1,9.1,7.2,8.3,8.530885,29,8,m
13155.28521,89,1,9.1,7.2,8.3,8.530885,29,0,m
465.994525,85,1,9.1,7.2,8.3,8.530885,29,0,s
334.817811,85,1,9.1,7.2,8.3,8.530885,29,8,m
6672.412408,88,1,8,6.6,7.3,7,46,0,s
85.18301,85,1,7.5,6.88237,8.009683,5,40,85,s
98.79173,85,1,8.3,6.9,8.1,8.530885,27,8,m
355.503406,85,1,9.1,7.2,8.3,8.530885,29,7,s
2499.807643,60,1,9.1,7,8.8,8.530885,30,11,m
193.26796,85,1,6.8,6.88237,8.009683,8.530885,40,18,s
76.120539,82,1,8.1,6.8,7.9,8.530885,24,11,s
64.571903,82,1,7.8,7.3,7.5,8.530885,83,57,m
13498.00748,60,1,7.7,6.5,7.5,8.530885,14,0,s
230.153118,85,1,6.4,6,6.4,8.530885,10,19,s
430.269901,85,1,9.1,7.2,8.3,8.530885,29,6,m
155.056006,89,1,8.8,7.2,8.5,9,22,17,l
3870.332182,80,1,8.6,6.88237,9.1,8.530885,33,0,m
9404.39016,89,1,7.6,7,7.6,8.530885,34,8,s
124.655323,85,3,7.5,6.9,7.2,9,10,0,m
1134.718832,85,1,9.1,7.2,8.3,8.530885,29,0,s
99.991484,89,1,8.4,6.7,8.2,8,33,7,l
18.530412,50,1,7.1,6.88237,7.1,10,26.742663,81,m
543.06011,85,1,6.9,6.88237,8.009683,8,9,4,s
9268.69507,81,1,8.8,7.2,8.5,9,22,0,s
2725.499726,60,1,9.1,7,8.8,8.530885,30,647,m
10520.56921,88,1,8.8,7.2,8.5,9,22,0,s
7708.301887,88,1,8,6.88237,8,5,26.742663,0,s
16962.53711,85,1,9.5,6.88237,8.5,12,33,63,m
176.027163,85,1,9.1,7.2,8.3,8.530885,29,7,l
5891.152776,85,3,9.2,6.88237,8.4,10,25,0,s
4601.561407,60,1,9.1,7,8.8,8.530885,30,9,s
8438.518028,88,1,8.2,6.88237,8.009683,6,7,5,s
4263.352349,81,1,8.1,6.88237,8.009683,9,19,9,s
261.29965,85,1,9.1,7.2,8.3,8.530885,29,5,l
163.598181,85,1,9.1,7.2,8.3,8.530885,29,8,l
7622.094099,81,1,9.5,6.88237,8.5,12,33,12,m
118.627162,88,1,7.3,6.88237,8.009683,8.530885,28,4,m
64.142959,85,3,7.5,6.9,7.2,9,10,14,m
175.097868,81,1,8.1,7.1,8.1,8.530885,18,2,m
16308.3656,89,1,9.1,7.2,8.3,8.530885,29,0,s
226.011329,85,1,8.4,6.88237,8.5,8.530885,15,0,l
98.108725,85,1,9.1,7.2,8.3,8.530885,29,7,m
114.710812,85,1,9.1,7.2,8.3,8.530885,29,6,l
147.782872,82,1,7.5,6.4,7.3,8.530885,33,0,s
253.875507,85,1,8.2,6.88237,8.009683,6,7,14,s
7732.087828,88,1,8.3,6.88237,7.6,8.530885,26.742663,0,s
1747.773644,87,1,7.9,6.6,7.6,6,33,0,s
7935.865149,88,1,8.3,6.88237,8.3,11,40,0,m
17109.49651,85,1,9.5,6.88237,8.5,12,33,0,s
3691.268438,80,3,8.6,6.88237,7.3,6,15,26,m
494.81244,85,1,9.1,7.2,8.3,8.530885,29,6,m
59.848685,60,1,7.8,6.5,7.3,8.530885,20,10,m
256.140028,85,1,7.4,6.88237,7.4,8.530885,60,0,s
201.711641,81,1,8.1,7.1,8.1,8.530885,18,28,l
155.517116,85,1,7,6.88237,7,8.530885,26.742663,0,m
178.028883,85,1,7.7,6.6,7.6,8,17,0,s
144.867805,89,1,8.8,7.2,8.5,9,22,16,m
135.297044,89,1,8.2,6.88237,8.009683,8,25,6,m
182.006932,89,1,8.3,6.88237,8.009683,9,22,24,m
128.147151,85,1,9.1,7.2,8.3,8.530885,29,7,m
331.317949,82,1,7.1,6.2,7.1,8.530885,32,0,s
95.040187,87,3,7.5,6.4,7.7,8.530885,10,3,s
126.382362,85,1,9.1,7.2,8.3,8.530885,29,7,m
6999.397667,81,1,8.5,7.7,8.1,9,13,0,s
448.292956,81,1,7.4,6.88237,8.009683,8.530885,10,8,s
2218.728521,88,3,9.2,6.88237,8.4,10,25,4,m
241.384457,86,1,7.6,6.5,7.6,6,33,27,s
257.876185,60,1,7.8,5.7,7.2,8.530885,18,0,m
56.325878,60,1,8.6,7.2,8.4,8.530885,30,12,s
130.104549,85,1,9.1,7.2,8.3,8.530885,29,12,m
135.056917,85,1,9.1,7.2,8.3,8.530885,29,6,l
16985.67322,85,1,9.5,6.88237,8.5,12,33,69,s
7351.272341,81,1,8.8,7.2,8.5,9,22,0,m
7627.325456,81,1,9.5,6.88237,8.5,12,33,28,m
760.330412,85,1,7.5,6.88237,8.009683,5,40,63,s
2725.499726,60,3,7.8,6.5,7.5,11,28,647,m
95.910749,60,1,7.8,6.5,7.3,8.530885,20,8,l
134.096388,85,1,9.1,7.2,8.3,8.530885,29,8,l
2725.499726,85,1,7.4,6.88237,7.4,8.530885,26.742663,647,l
135.510026,89,1,8.2,6.88237,8.009683,8,25,9,m
92.061099,86,1,7.1,6.3,7.1,8,50,27,s
615.122206,89,1,8.8,7.2,8.5,9,22,0,l
9916.063494,81,1,9.1,7,8.8,8.530885,30,0,s
17262.53341,85,1,8,6.7,7.8,8,40,0,s
22.377366,85,1,7.9,6.88237,7.9,8.530885,35,15,l
6718.460937,88,1,8.8,7,8,8,35,5,s
246.921705,85,1,9.1,7.2,8.3,8.530885,29,2,m
17473.7411,85,1,9.5,6.88237,8.5,12,33,0,s
95.829625,85,1,9.1,7.2,8.3,8.530885,29,6,m
49.249011,82,1,8.1,6.8,7.9,8.530885,24,14,l
133.657936,85,1,7.6,6.88237,7.3,8.530885,74,49,s
12173.8952,80,1,8.4,6.7,8.2,8,33,0,s
2014.464982,89,1,8.5,6.88237,8.5,11,25,0,m
4100.803391,81,1,8.1,6.8,7.9,8.530885,24,0,s
117.232434,85,1,9.1,7.2,8.3,8.530885,29,11,m
721.836357,84,3,7.5,6.9,7.2,9,10,0,s
4840.198741,80,1,7.9,6.88237,7.9,9,47,0,s
257.452488,85,1,9.1,7.2,8.3,8.530885,29,7,s
116.515143,87,1,6.5,7,6.5,8.530885,40,0,s
5000.399963,60,1,9.1,7,8.8,8.530885,30,14,m
477.225164,87,1,7.9,6.7,7.6,6,10,5,s
17300.67149,85,1,9.5,6.88237,8.5,12,33,80,s
193.282851,85,1,9.1,7.2,8.3,8.530885,29,16,m
677.978807,89,1,8,6.7,7.8,8,40,0,s
480.286076,85,1,9.1,7.2,8.3,8.530885,29,0,s
3655.192223,80,3,8.6,6.88237,7.3,6,15,12,l
123.247395,85,1,9.1,7.2,8.3,8.530885,29,11,l
116.638733,85,1,9.1,7.2,8.3,8.530885,29,4,m
189.576018,81,1,8.1,7.1,8.1,8.530885,18,18,m
94.792546,85,1,9.1,7.2,8.3,8.530885,29,6,m
68.678951,84,1,7.3,6.88237,7.3,8.530885,47,0,s
10587.10557,81,1,8,6.7,7.9,8,39,0,s
272.028647,85,1,9.1,7.2,8.3,8.530885,29,0,s
636.902624,85,1,8.5,7.7,8.1,9,13,41,s
1367.863665,81,1,7.6,6.4,7.6,6,50,0,s
80.285707,85,1,6.7,6.88237,8.009683,5,23,0,s
8659.145794,88,1,9.1,7.2,8.3,8.530885,29,4,s
62.693401,83,3,7.5,6.88237,8.009683,9,20,1,m
1460.28159,87,1,8.2,6.88237,8.009683,8,32,12,s
92.953243,85,1,9.1,7.2,8.3,8.530885,29,6,l
1797.40524,60,1,9.1,7,8.8,8.530885,30,11,l
8459.738293,88,1,9.1,7.2,8.3,8.530885,29,0,s
10432.25111,81,1,8.2,6.88237,8.009683,8,25,5,s
4707.490141,81,1,8.3,6.5,7.8,8.530885,10,0,s
66.111807,74,1,6.2,6.88237,8.009683,8.530885,15,53,m
65.448985,83,3,7.5,6.88237,8.009683,9,20,11,m
176.918841,85,1,7.1,6.88237,8.009683,8.530885,26.742663,0,s
214.617428,85,1,9.1,7.2,8.3,8.530885,29,7,l
5490.463724,88,1,8.1,7.3,8.2,8.530885,10,0,s
964.24624,81,1,8.1,6.88237,8.009683,9,19,0,s
411.453978,85,1,9.1,7.2,8.3,8.530885,29,4,m
181.414912,89,1,8.3,6.88237,8.009683,9,22,14,s
10316.77999,89,1,8.1,7.1,8.1,8.530885,18,0,s
176.469305,85,1,7.2,6.2,6.8,8.530885,37,0,s
2108.992029,85,1,9,6.88237,8.5,7,22,0,m
379.246775,85,1,8.4,6.88237,8.5,8.530885,15,21,s
8241.090443,81,1,8.2,6.88237,8.009683,8,25,5,s
33.901876,82,3,7,5.8,7.1,8.530885,25,8,m
2725.499726,84,1,7.5,6.3,7.2,8.530885,31,647,m
181.454315,89,1,8.3,6.88237,8.009683,9,22,15,m
2155.620172,81,1,7.9,6.4,7.4,8,24,0,s
181.477008,89,1,8.3,6.88237,8.009683,9,22,20,s
82.165441,50,3,7,6.88237,7.2,11,40,8,l
7829.741947,88,1,8.3,7.3,8.1,9,14,0,s
286.520659,85,1,8.4,6.88237,8.5,8.530885,15,0,l
4688.185786,60,1,9.1,7,8.8,8.530885,30,7,l
102.424014,85,1,9.1,7.2,8.3,8.530885,29,9,l
99.983393,85,1,9.1,7.2,8.3,8.530885,29,6,l
289.079433,50,1,6.8,6.5,6.9,10,12,4,s
183.546952,89,1,8.3,6.88237,8.009683,9,22,10,s
6389.990461,85,1,7.9,5.8,7.9,8.530885,33,0,s
126.670549,85,1,9.1,7.2,8.3,8.530885,29,8,m
212.531156,85,1,9.1,7.2,8.3,8.530885,29,11,l
1732.356035,60,1,9.1,7,8.8,8.530885,30,0,m
981.329457,60,1,9.1,7,8.8,8.530885,30,0,m
46.028655,85,1,8.1,6.88237,8,8.530885,30,0,m
10125.38063,88,1,8.1,6.88237,8.009683,9,19,6,s
9587.183278,81,1,9.1,7.2,8.3,8.530885,29,11,m
14394.27975,85,1,6.8,6.88237,8.009683,8.530885,93,0,s
17110.0855,85,1,9.5,6.88237,8.5,12,33,20,m
183.683397,89,1,8.3,6.88237,8.009683,9,22,6,s
108.414867,85,1,7.5,6.88237,8.009683,5,40,12,s
291.881121,74,1,7.2,6.88237,7.2,6,7,255,s
108.10708,85,1,9.1,7.2,8.3,8.530885,29,7,m
17119.01726,85,1,8,6.6,7.3,7,46,8,s
2465.294682,88,1,7.9,6.88237,8.009683,4,14,23.263212,s
132.314254,85,1,9.1,7.2,8.3,8.530885,29,6,m
119.97908,85,1,6.8,6.3,7.3,8.530885,14,5,s
3979.098684,89,1,8.8,7.2,8.5,9,22,0,s
129.732029,85,1,9.1,7.2,8.3,8.530885,29,7,m
1786.571631,60,1,9.1,7,8.8,8.530885,30,8,l
85.605709,85,1,9.1,7.2,8.3,8.530885,29,9,l
187.43171,81,1,8.1,7.1,8.1,8.530885,18,61,l
227.636609,88,1,7.6,6.88237,7.6,4,26.742663,0,s
74.313955,82,1,7.6,6.5,7.8,8.530885,13,9,s
1054.1187,89,1,8.3,6.88237,8.3,11,40,0,m
302.312398,89,1,8.8,7.2,8.5,9,22,11,m
181.474356,89,1,8.3,6.88237,8.009683,9,22,19,s
140.558631,82,1,8.1,6.8,7.9,8.530885,24,14,m
134.351648,85,1,7.7,6.88237,7.7,8.530885,30,69,s
79.282767,60,1,7.8,6.5,7.3,8.530885,20,7,m
189.842267,81,1,8.1,7.1,8.1,8.530885,18,25,l
181.436719,89,1,8.3,6.88237,8.009683,9,22,7,m
2761.572845,88,1,7.7,6.88237,7.8,8.530885,35,0,s
354.047941,85,1,7.1,6.88237,8.009683,8.530885,60,209,s
3036.037344,81,1,8.2,6.88237,8.009683,6,7,18,s
38.135921,85,3,7.5,6.9,7.2,9,10,8,s
116.01788,88,1,7.6,5.4,7.7,8.530885,30,8,l
939.426796,81,1,7.7,6.88237,8.009683,8.530885,37,5,s
106.844346,85,1,9.1,7.2,8.3,8.530885,29,14,l
181.49418,89,1,8.3,6.88237,8.009683,9,22,18,m
2522.125458,60,1,9.1,7,8.8,8.530885,30,5,m
6179.896818,85,1,7.9,5.8,7.9,8.530885,33,0,s
883.163334,60,1,8.6,7.4,8.5,8.530885,20,23.263212,s
7094.433929,88,3,9.2,6.88237,8.4,10,25,0,s
113.499611,85,1,9.1,7.2,8.3,8.530885,29,5,s
2725.499726,85,5,6.4,6.88237,6.4,8.530885,26.742663,647,l
6055.427945,60,1,9.1,7,8.8,8.530885,30,0,m
5491.209074,88,1,8.8,7,8,8,35,0,s
181.465345,89,1,8.3,6.88237,8.009683,9,22,15,m
16984.35009,85,1,9.5,6.88237,8.5,12,33,53,m
62.708568,50,1,7,6.88237,8.009683,8,21,45,s
79.817885,81,1,7.1,6.88237,8.009683,8.530885,43,8,s
90.930342,85,1,8.2,6.88237,8.2,8.530885,26.742663,46,m
87.15711,85,1,8.3,6.9,8.1,8.530885,27,6,m
131.177424,85,1,9.1,7.2,8.3,8.530885,29,14,l
498.831429,85,1,9.1,7.2,8.3,8.530885,29,0,m
5.044184,85,3,7.5,6.9,7.2,9,10,9,m
7954.288681,88,1,8,6.6,7.3,7,46,5,s
142.864036,85,1,8.3,6.88237,8.1,8.530885,15,0,m
249.128462,85,1,9.1,7.2,8.3,8.530885,29,9,l
88.553545,85,1,9.1,7.2,8.3,8.530885,29,13,l
182.945888,85,1,7.4,6.88237,7.4,8.530885,26.742663,7,m
135.145423,85,1,9.1,7.2,8.3,8.530885,29,12,m
271.028315,85,1,9.1,7.2,8.3,8.530885,29,11,l
79.20011,60,1,7.8,6.5,7.3,8.530885,20,6,m
235.092821,85,1,8.2,6.88237,8.009683,6,7,9,m
182.233381,89,1,8.3,6.88237,8.009683,9,22,23,m
119.738069,86,1,8.3,7.3,8.1,9,14,51,l
624.064889,85,1,8.2,6.88237,7.8,9,30,0,s
226.625042,81,1,8.1,7.1,8.1,8.530885,18,16,m
109.199977,85,1,8.1,6.88237,8,8.530885,30,4,m
1987.950336,85,1,7.5,6.4,7.3,8.530885,33,7,s
1299.546419,82,1,7.8,6.88237,8.009683,8,40,9,s
6735.8155,88,1,8.3,6.9,8.1,8.530885,27,0,s
124.719294,50,1,6,6.88237,6,9,29,18,s
131.742127,89,1,8.8,7.2,8.5,9,22,10,l
7232.741555,81,3,8.6,6.88237,7.3,6,15,22,l
249.425413,85,1,9.1,7.2,8.3,8.530885,29,10,l
13205.36849,89,1,7.8,6.2,7.2,8.530885,33,0,s
2870.552437,85,1,8.8,7,8,8,35,72,s
1158.363692,85,1,8.2,6.88237,8.009683,6,7,95,s
5930.97706,80,1,9.1,7.2,8.3,8.530885,29,4,m
134.353896,85,1,9.1,7.2,8.3,8.530885,29,9,m
252.509255,85,1,8.4,6.88237,8.5,8.530885,15,22,m
6257.374088,80,1,9.1,7.2,8.3,8.530885,29,0,m
1641.494263,60,1,9.1,7,8.8,8.530885,30,11,l
3109.223106,88,3,9.2,6.88237,8.4,10,25,0,s
188.169387,85,1,6.9,6.88237,8.009683,8,9,0,s
16991.48361,85,1,8.5,6.88237,8.5,11,26.742663,0,m
195.542539,85,1,9.1,7.2,8.3,8.530885,29,12,m
181.775196,89,1,8.3,6.88237,8.009683,9,22,15,l
51.7939,89,1,8,6.7,7.8,8,40,19,m
78.541659,85,1,8.1,6.88237,8,8.530885,30,0,l
411.75083,60,3,7.7,6.88237,8.009683,4,15,7,s
224.720724,85,1,7.7,6.8,7.7,8,44,0,s
562.125673,85,1,9.1,7.2,8.3,8.530885,29,0,s
134.390808,85,1,9.1,7.2,8.3,8.530885,29,10,l
169.806831,85,3,7.5,6.9,7.2,9,10,31,s
1100.863401,85,3,6.8,6.3,6.9,8.530885,20,0,s
362.918069,85,1,7.8,6.8,7.7,8,24,94,m
96.946737,85,1,9.1,7.2,8.3,8.530885,29,0,l
97.909447,85,1,7.1,6.88237,8.009683,8.530885,20,5,s
3955.824613,80,1,8.6,6.88237,9.1,8.530885,33,0,m
2490.32214,60,1,9.1,7,8.8,8.530885,30,5,m
2725.499726,85,1,7.6,6.88237,7.3,8.530885,74,647,s
10569.2393,81,1,8,6.7,7.9,8,39,0,s
238.392742,85,1,9.1,7.2,8.3,8.530885,29,8,l
4300.417145,81,1,8.2,6.88237,8.009683,6,7,0,s
14994.26953,88,1,8.1,6.88237,8.009683,8.530885,48,12,s
5309.789146,80,1,9,6.88237,8.5,7,22,0,m
50.061123,82,3,7.3,7.1,7.3,8,8,0,s
125.488654,85,1,9.1,7.2,8.3,8.530885,29,12,m
92.584895,85,3,7.5,6.9,7.2,9,10,8,l
1650.787675,60,1,9.1,7,8.8,8.530885,30,7,l
80.926151,30,1,7.2,6.2,7.3,8,10,14,s
1783.384938,60,1,9.1,7,8.8,8.530885,30,8,m
59.196173,83,3,7.8,6.88237,7.8,8.530885,26.742663,0,l
7348.570954,81,1,8.8,7.2,8.5,9,22,9,m
120.737854,74,1,6.4,6.88237,8.009683,8,10,0,s
4500.355024,60,1,9.1,7,8.8,8.530885,30,5,m
1150.754117,85,1,8.2,6.88237,8.3,8.530885,33,69,s
20.25684,50,1,7,6.88237,8.009683,8,21,4,s
212.62849,85,1,9.1,7.2,8.3,8.530885,29,9,l
1224.343795,85,1,7.4,7,7.5,8.530885,14,0,s
107.825387,86,1,8.3,6.5,7.8,8.530885,10,0,l
357.958973,60,1,9.1,7,8.8,8.530885,30,7,s
98.410113,89,1,8.8,7.2,8.5,9,22,2,l
12585.97995,89,1,7.9,6.4,7.4,8,24,0,s
4001.821694,81,1,7.6,7,7.6,8.530885,34,10,s
268.106208,60,1,7.7,6.1,7.2,8.530885,20,9,m
35.912788,60,1,7.8,6.5,7.3,8.530885,20,0,l
3698.631095,85,1,7.6,6.88237,7.6,8.530885,25,22,s
254.022708,85,1,9.1,7.2,8.3,8.530885,29,10,l
5466.763879,85,1,7.9,6.88237,7.9,9,47,0,s
837.974137,60,1,9.1,7,8.8,8.530885,30,0,l
53.84781,60,3,6.9,6.2,6.9,7,13,0,m
229.653027,60,1,7.7,6.1,7.2,8.530885,20,13,l
9700.540961,88,1,9.5,6.88237,8.5,12,33,10,s
2249.134396,88,3,9.2,6.88237,8.4,10,25,36,m
3482.279387,80,3,8.6,6.88237,7.3,6,15,10,l
182.147393,60,3,7.7,6.88237,8.009683,4,15,0,s
67.317992,82,1,7.6,6.5,7.8,8.530885,13,0,m
3118.386817,88,3,9.2,6.88237,8.4,10,25,36,m
260.402434,60,1,9.1,7,8.8,8.530885,30,9,l
386.637905,89,1,8.8,7.2,8.5,9,22,11,m
245.498288,83,1,8.3,6.88237,8.3,9,100,0,l
25.282883,83,1,7,6.2,7.2,8.530885,20,9,s
183.703401,85,1,7.2,6,7.2,8.530885,44,0,s
3618.911887,85,1,8,6.4,7.7,6,19,0,s
212.240767,85,1,9.1,7.2,8.3,8.530885,29,22,l
410.790822,85,1,9.1,7.2,8.3,8.530885,29,9,m
15799.27416,85,1,8.4,6.7,8.2,8,33,0,s
181.304357,89,1,8.3,6.88237,8.009683,9,22,15,s
584.458849,82,1,7.9,6.4,7.4,8,24,0,s
9550.037079,81,1,9.1,7.2,8.3,8.530885,29,39,m
257.037515,60,1,7.8,5.7,7.2,8.530885,18,10,m
27.167131,50,1,7,6.88237,8.009683,8,21,7,s
88.22938,50,1,6.6,6.88237,8.009683,7,17,0,s
7958.300546,88,1,8.6,6.88237,9.1,8.530885,33,0,s
2569.451244,89,1,8.1,6.88237,7.5,9,38,0,s
57.733354,85,1,8.3,6.9,8.1,8.530885,27,4,m
11002.83946,80,1,9.5,6.88237,8.5,12,33,0,m
173.556927,60,3,8,7.7,8,10,15,16,l
10627.35094,80,1,8.3,6.88237,8.009683,9,22,5,s
7130.224828,88,1,8.4,6.7,8.2,8,33,5,s
17668.05389,85,1,9.5,6.88237,8.5,12,33,171,s
183.405935,89,1,8.3,6.88237,8.009683,9,22,10,s
10790.95676,80,1,9.5,6.88237,8.5,12,33,0,m
181.506263,89,1,8.3,6.88237,8.009683,9,22,22,s
324.608956,85,1,8.1,6.88237,8.3,9,45,0,m
5787.854305,80,1,9.1,7.2,8.3,8.530885,29,0,l
1.233425,50,1,5.1,6.88237,5.1,7,26.742663,11,l
2115.261504,60,1,9.1,7,8.8,8.530885,30,13,m
655.835145,89,1,7.6,6.5,7.3,6,62,0,s
67.96188,85,1,7.9,6.88237,7.9,8.530885,35,0,m
340.577043,85,1,7.8,6.8,7.7,8,24,92,s
790.998632,85,1,9.1,7.2,8.3,8.530885,29,9,s
10703.90021,80,1,9.5,6.88237,8.5,12,33,0,m
9933.56707,88,1,8,6.6,7.3,7,46,0,s
271.843853,85,1,9.1,7.2,8.3,8.530885,29,8,l
294.275635,85,1,7.5,6.4,7.5,6,33,0,s
16985.67322,85,1,9.5,6.88237,8.5,12,33,69,m
2007.064183,60,1,9.1,7,8.8,8.530885,30,10,l
71.354996,50,1,6.2,6.88237,8.009683,8.530885,10,0,s
4375.120334,60,1,9.1,7,8.8,8.530885,30,0,m
11528.09624,87,1,9.1,7,8.8,8.530885,30,14,s
96.552507,85,1,9.1,7.2,8.3,8.530885,29,6,m
3188.267031,80,1,8.1,7.3,8.2,8.530885,10,6,s
3433.414866,80,1,8.5,7.7,8.1,9,13,0,s
148.384919,85,1,6.4,6.88237,8.009683,8.530885,12,10,s
141.209756,87,3,7.8,6.88237,7.9,11,35,0,m
97.306082,81,1,8.3,6.88237,8.3,8.530885,25,16,m
553.6017,87,1,8.2,8.2,8.3,6,25,0,s
14.723762,85,3,7.5,6.9,7.2,9,10,5,m
99.137006,85,1,8.1,6.88237,8,8.530885,30,7,m
125.888261,85,1,7.4,6.2,7.1,8.530885,10,17,s
9884.890054,81,1,9,6.88237,8.5,7,22,26,s
25.05783,74,3,7,6.8,7.3,8.530885,13,5,s
44.353428,60,1,7,6.8,7,8.530885,46,0,s
1830.190003,60,1,9.1,7,8.8,8.530885,30,7,s
3603.156069,88,1,8.2,6.88237,8.009683,8,32,33,s
7332.213568,73,1,8.6,8,8.6,11,33,328,s
183.187817,89,1,8.3,6.88237,8.009683,9,22,13,s
17699.28257,85,1,8,6.6,7.3,7,46,0,s
77.824506,85,1,7.5,6.88237,8.009683,5,40,10,s
193.051908,81,1,8.1,7.1,8.1,8.530885,18,1,m
45.750643,89,1,8.8,7.2,8.5,9,22,11,l
124.699262,88,1,7.7,6.5,7.5,8.530885,14,24,l
581.141022,85,0,8.30368,4.9,8.009683,8.530885,10,0,s
86.600082,85,1,8.3,6.88237,8.1,8.530885,15,12,l
266.71283,83,1,7.1,6.88237,8.009683,8.530885,33,0,s
171.212716,89,1,7.6,6.88237,8.009683,7,38,10,s
526.662373,85,1,8.2,6.88237,8.009683,6,7,0,s
9587.253918,81,1,9.1,7.2,8.3,8.530885,29,13,m
180.379603,81,1,8.1,7.1,8.1,8.530885,18,6,m
939.867526,89,1,8.3,6.88237,8.3,11,40,0,m
259.734819,60,1,9.1,7,8.8,8.530885,30,12,l
16.027541,85,3,7.5,6.9,7.2,9,10,5,m
426.495255,85,1,7.4,6.3,7.2,10,56,10,s
268.037057,82,1,6.8,6.2,6.7,8.530885,15,0,s
2834.374752,85,1,7.6,6.88237,8.009683,7,32,0,s
810.900595,87,3,9.2,6.88237,8.4,10,25,5,m
182.784816,89,1,8.3,6.88237,8.009683,9,22,19,l
113.316275,50,1,7,6.88237,8.009683,8,21,0,s
10619.85666,80,1,6.1,6.88237,6.1,8.530885,26.742663,0,s
10629.04382,80,1,9.5,6.88237,8.5,12,33,24,m
6140.717652,81,1,9.1,7,8.8,8.530885,30,0,s
2007.801007,88,3,9.2,6.88237,8.4,10,25,69,s
128.421537,85,1,9.1,7.2,8.3,8.530885,29,9,l
478.927661,82,1,7.5,6.88237,8.009683,8.530885,10,0,s
115.704418,85,1,9.1,7.2,8.3,8.530885,29,10,l
482.127252,85,1,8.2,6.88237,8.009683,6,7,0,s
8468.908544,80,1,8.1,6.4,7.7,9,23,11,s
1727.846472,81,1,8,6.5,8,8.530885,33,0,s
2354.199743,81,1,7.6,6.4,7.3,8.530885,45,0,s
1498.445428,73,1,8.5,6.88237,8.009683,11,26.742663,79,m
372.88108,85,1,8.3,6.88237,8.1,8.530885,15,7,m
1801.189369,60,1,9.1,7,8.8,8.530885,30,9,l
1037.345135,84,1,7.7,6.6,7.6,8,17,0,s
139.536665,85,1,7.9,6.88237,7.9,8.530885,35,26,m
229.292449,60,1,7.7,6.1,7.2,8.530885,20,11,l
4193.608539,60,1,7.7,6.1,7.2,8.530885,20,0,s
2940.252338,88,1,8.2,6.88237,8.009683,8,32,0,s
243.318623,74,3,7.1,6.88237,8.009683,9,15,94,s
3239.524892,80,1,7.9,6.6,7.9,5,33,6,s
10980.37677,80,1,9.5,6.88237,8.5,12,33,290,m
104.72219,85,1,9.1,7.2,8.3,8.530885,29,7,m
293.477852,85,1,8.1,6.88237,8.3,9,45,0,m
2725.499726,85,1,7.9,6.88237,7.9,8.530885,35,647,s
136.295147,85,1,9.1,7.2,8.3,8.530885,29,14,l
447.242489,85,1,8.1,6.88237,8.3,9,45,0,s
124.628242,85,1,9.1,7.2,8.3,8.530885,29,10,l
8745.290159,88,1,9.1,7.2,8.3,8.530885,29,5,s
41.7473,89,1,8.8,7.2,8.5,9,22,13,l
189.529356,81,1,8.1,7.1,8.1,8.530885,18,0,s
131.844984,85,1,9.1,7.2,8.3,8.530885,29,6,s
1034.018806,84,1,7.7,6.6,7.6,8,17,0,m
7388.498774,81,1,8.2,6.88237,8.009683,8,25,0,s
758.975578,86,1,5.7,6.3,5.7,8.530885,39,0,s
4827.244761,80,1,7.8,6.3,7.6,7,33,0,s
233.212543,85,1,9.1,7.2,8.3,8.530885,29,17,l
2725.499726,84,1,7.1,6.4,7.4,8.530885,33,647,s
96.900576,85,1,9.1,7.2,8.3,8.530885,29,11,m
181.586348,89,1,8.3,6.88237,8.009683,9,22,15,m
113.750363,85,1,8.3,6.88237,8.1,8.530885,15,0,m
6307.390164,80,1,9.1,7.2,8.3,8.530885,29,4,m
1765.472478,60,1,9.1,7,8.8,8.530885,30,0,m
191.081516,85,1,9.1,7.2,8.3,8.530885,29,9,l
7.632829,88,1,8.30368,6.88237,8.009683,8.530885,26.742663,85,m
3655.033987,80,3,8.6,6.88237,7.3,6,15,0,l
134.818664,85,1,9.1,7.2,8.3,8.530885,29,12,l
34.40852,89,1,8.8,7.2,8.5,9,22,15,l
6700.943814,88,1,8.8,7,8,8,35,0,s
26.733452,84,1,6.7,6.3,6.6,8,11,0,s
3665.744659,80,3,8.6,6.88237,7.3,6,15,0,m
2480.036044,89,1,8.2,6.88237,8.009683,9,47,23.263212,s
2144.468882,85,1,9,6.88237,8.5,7,22,35,m
354.586501,89,1,8,6.7,7.8,8,40,0,s
46.217891,82,1,7,6,7,8.530885,34,4,m
930.358207,87,1,7.8,6.8,7.6,5,15,23.263212,s
716.9978,85,1,8.2,6.88237,8.009683,6,7,7,s
298.607589,85,3,7.5,6.9,7.2,9,10,18,s
1657.506146,60,1,9.1,7,8.8,8.530885,30,0,m
42.470156,85,1,6.4,6.88237,8.009683,8.530885,12,0,s
16.985934,60,1,6,6.88237,6,8.530885,33,7,m
86.032444,85,1,9.1,7.2,8.3,8.530885,29,6,m
946.913189,89,1,8.3,6.88237,8.009683,9,22,0,s
3938.569424,80,1,8.6,6.88237,9.1,8.530885,33,0,m
23.450847,74,3,7,6.8,7.3,8.530885,13,4,m
10543.51225,80,1,8,6.6,7.3,7,46,0,s
79.471017,85,1,7.5,6.88237,7.5,7,30,69,s
50.415805,81,1,8,6.88237,8,8.530885,33,0,l
123.7059,89,1,7.5,5.8,6.6,4,10,10,m
17000.58795,89,1,9.1,7.2,8.3,8.530885,29,47,s
119.86074,80,1,7.9,6.88237,8.009683,10,26.742663,0,s
3843.487598,89,1,8.8,7.2,8.5,9,22,0,s
9187.345409,89,3,9.2,6.88237,8.4,10,25,7,s
25.389524,89,1,8,6.6,7.3,7,46,0,m
231.456179,60,1,9.1,7,8.8,8.530885,30,6,m
102.157587,85,1,9.1,7.2,8.3,8.530885,29,11,l
583.743935,87,1,8.2,6.88237,8.009683,8,32,0,s
311.048847,85,1,8.1,6.88237,8.3,9,45,0,s
17325.46201,85,1,9.5,6.88237,8.5,12,33,48,m
1814.925035,88,1,7.9,6.88237,8.009683,4,14,23.263212,s
182.361488,89,1,8.3,6.88237,8.009683,9,22,8,s
193.472473,83,1,7.1,6.88237,8.009683,5,45,0,s
2494.286539,60,1,9.1,7,8.8,8.530885,30,0,m
5925.586652,60,1,9.1,7,8.8,8.530885,30,0,m
125.099483,85,1,9.1,7.2,8.3,8.530885,29,7,m
192.749655,81,1,8.1,7.1,8.1,8.530885,18,10,l
134.659076,85,1,9.1,7.2,8.3,8.530885,29,11,l
47.821249,83,3,7.5,6.88237,8.009683,9,20,0,m
180.993653,81,1,8.1,7.1,8.1,8.530885,18,16,l
954.474238,82,1,7.7,6.88237,8.009683,7,10,0,s
43.338723,50,1,6.4,6,6.4,9,29,21,s
422.447259,85,1,9.1,7.2,8.3,8.530885,29,14,m
116.383764,83,3,8.2,6.5,8.1,9,33,5,s
10603.46986,88,3,8.2,6.5,8.1,9,33,12,s
5039.41571,60,1,9.1,7,8.8,8.530885,30,8,l
350.428081,85,1,9.1,7.2,8.3,8.530885,29,6,s
17047.43301,85,1,9.5,6.88237,8.5,12,33,14,m
11102.08235,81,1,7.7,6.5,7.5,8.530885,14,5,s
2644.402936,80,1,7.9,6.88237,8.009683,6,109,0,s
16743.03276,85,1,9.5,6.88237,8.5,12,33,0,m
259.975946,85,1,9.1,7.2,8.3,8.530885,29,8,s
323.937643,85,1,9.1,7.2,8.3,8.530885,29,6,l
104.760328,85,1,9.1,7.2,8.3,8.530885,29,10,m
17326.49408,89,1,9.1,7,8.8,8.530885,30,10,s
1010.591512,87,1,7.8,6.8,7.6,5,15,23.263212,s
135.118864,85,1,9.1,7.2,8.3,8.530885,29,10,l
576.739742,89,1,8.3,6.88237,8.009683,9,22,14,s
96.544079,85,1,9.1,7.2,8.3,8.530885,29,10,l
135.100861,89,1,7.4,6.88237,7.4,9,30,0,s
128.936165,85,1,9.1,7.2,8.3,8.530885,29,6,s
182.465372,89,1,8.3,6.88237,8.009683,9,22,15,s
131.776355,89,1,7.5,5.8,6.6,4,10,12,m
3031.714096,85,1,7.6,6.4,7.6,6,50,0,s
6824.051494,88,1,8.8,7,8,8,35,5,s
230.972979,85,1,9.1,7.2,8.3,8.530885,29,8,s
181.463256,89,1,8.3,6.88237,8.009683,9,22,11,m
130.967212,89,1,8.3,6.88237,8.009683,9,22,16,m
422.820111,85,1,7.8,6.8,7.7,8,24,0,s
316.282581,60,1,7.5,7,7.5,6,35,23.263212,s
5603.698135,74,1,8.5,6.88237,8.009683,11,26.742663,9,s
10611.69637,80,1,9.5,6.88237,8.5,12,33,15,m
569.212272,73,1,8.5,6.88237,8.5,9,26.742663,16,m
2034.006136,60,1,9.1,7,8.8,8.530885,30,0,m
5378.32698,85,3,9.2,6.88237,8.4,10,25,45,s
227.347547,60,1,7.7,6.1,7.2,8.530885,20,7,l
389.909892,50,1,7.8,6.88237,8.009683,9,17,0,s
512.952983,50,1,6.6,6.88237,8.009683,7,17,4,s
183.061452,89,1,8.3,6.88237,8.009683,9,22,10,m
11154.25642,80,1,9.5,6.88237,8.5,12,33,10,m
105.411578,85,1,9.1,7.2,8.3,8.530885,29,8,l
137.393911,82,1,7.3,6.8,7.4,8.530885,16,17,m
183.177711,89,1,8.3,6.88237,8.009683,9,22,13,s
9413.65069,81,1,9.1,7.2,8.3,8.530885,29,0,m
12.046009,50,1,6.6,6.88237,8.009683,7,7,3,s
2946.009393,88,3,8.6,6.88237,7.3,6,15,9,s
167.297075,81,1,8.1,7.1,8.1,8.530885,18,7,s
261.309234,60,1,9.1,7,8.8,8.530885,30,8,l
71.540708,50,1,7,6.88237,8.009683,8,21,0,s
92.490226,85,3,7.5,6.9,7.2,9,10,9,l
10557.16511,81,1,8.1,6.88237,8.009683,8.530885,48,10,s
4591.376967,60,1,9.1,7,8.8,8.530885,30,3,m
17.554564,85,3,7.5,6.9,7.2,9,10,5,m
5.593323,83,3,7.5,6.88237,8.009683,9,20,1,m
13905.17894,82,1,9.5,6.88237,8.5,12,33,21,s
129.225325,83,3,8.2,6.5,8.1,9,33,0,m
248.817391,85,1,9.1,7.2,8.3,8.530885,29,10,l
4416.42313,81,1,8.3,6.5,7.8,8.530885,10,0,s
121.03641,85,1,9.1,7.2,8.3,8.530885,29,13,l
266.135759,60,1,9.1,7,8.8,8.530885,30,6,m
257.778808,85,1,9.1,7.2,8.3,8.530885,29,5,l
10114.21747,88,1,8.1,6.88237,8.009683,9,19,0,s
131.392284,85,1,9.1,7.2,8.3,8.530885,29,17,l
688.618635,85,1,7.8,6.8,7.7,8,24,22,m
222.236837,60,1,7.7,6.1,7.2,8.530885,20,10,m
5602.280533,60,1,9.1,7,8.8,8.530885,30,0,s
149.954559,85,1,9.1,7.2,8.3,8.530885,29,7,l
2517.777788,60,1,9.1,7,8.8,8.530885,30,9,m
4245.224699,89,1,8.8,7.2,8.5,9,22,0,s
430.972916,85,1,9.1,7.2,8.3,8.530885,29,5,m
2497.705985,60,1,9.1,7,8.8,8.530885,30,0,m
96.238409,85,1,9.1,7.2,8.3,8.530885,29,12,l
55.956392,83,3,7.5,6.88237,8.009683,9,20,10,l
4016.995411,87,1,8.8,7,8,8,35,12,s
181.505595,89,1,8.3,6.88237,8.009683,9,22,15,s
254.025469,60,1,7.8,5.7,7.2,8.530885,18,9,l
10637.61625,80,1,9.5,6.88237,8.5,12,33,0,l
274.13233,85,3,7.5,6.9,7.2,9,10,0,s
8717.926362,85,1,8.1,6.88237,8.009683,9,19,0,s
95.776264,86,1,9,6.88237,8.5,7,22,8,m
122.823172,85,1,9.1,7.2,8.3,8.530885,29,14,l
5076.425,80,1,7.2,6.88237,7.2,10,20,0,s
17786.17202,85,1,9.5,6.88237,8.5,12,33,10,s
16795.59516,85,1,8,6.7,7.8,8,40,0,s
80.429259,85,1,8.1,6.88237,8,8.530885,30,327,m
8148.710792,81,1,7.7,6.5,7.5,8.530885,14,9,s
4618.359124,87,3,7.7,6,7.2,9,2,14,s
16973.1567,85,1,9.5,6.88237,8.5,12,33,27,m
87.848506,85,1,7.7,6.6,7.6,8,17,0,m
16987.30085,85,1,9.5,6.88237,8.5,12,33,0,l
325.804181,85,1,9.1,7.2,8.3,8.530885,29,0,m
228.880381,85,1,7,6.88237,7,8.530885,34,8,s
1146.80276,89,1,8.2,6.88237,8.009683,8,25,0,s
386.537335,89,1,8.8,7.2,8.5,9,22,4,m
17096.74483,85,1,9.5,6.88237,8.5,12,33,0,m
496.110067,85,1,9.1,7.2,8.3,8.530885,29,5,s
3761.206069,80,3,8.6,6.88237,7.3,6,15,0,m
279.403479,85,3,7.5,6.9,7.2,9,10,0,s
130.31432,60,1,7.8,6.5,7.3,8.530885,20,15,l
6459.453251,88,1,8.1,7.3,8.2,8.530885,10,0,s
127.164839,85,1,9.1,7.2,8.3,8.530885,29,7,l
109.733537,86,1,8.3,6.5,7.8,8.530885,10,7,l
105.811857,85,1,9.1,7.2,8.3,8.530885,29,10,l
9672.673096,88,1,9.5,6.88237,8.5,12,33,10,s
84.88922,81,3,7.7,6.88237,7.8,9,35,7,m
68.696363,83,3,7.5,6.88237,8.009683,9,20,10,m
1824.757445,60,1,9.1,7,8.8,8.530885,30,8,l
17110.57268,85,1,8.2,6.88237,8.4,11,25,9,s
9059.788228,88,1,9.5,6.88237,8.5,12,33,11,s
3209.14125,85,1,7.8,7.1,8,9,59,0,s
887.033766,85,1,8.5,7.7,8.1,9,13,0,s
117.797332,85,1,9.1,7.2,8.3,8.530885,29,8,m
257.714034,85,1,8.4,6.88237,8.5,8.530885,15,28,l
57.204995,89,1,8,6.7,7.9,8,39,0,m
3553.196727,88,3,8.6,6.88237,7.3,6,15,0,m
62.674201,86,1,5.5,6.1,5.5,8.530885,29,0,s
344.704802,85,1,8.4,6.88237,8.5,8.530885,15,0,m
176.224701,85,1,7.5,6.88237,7.5,9,10,38,m
95.895999,85,1,9.1,7.2,8.3,8.530885,29,7,l
15812.00583,85,1,8.4,6.7,8.2,8,33,69,s
48.25341,85,1,8.2,6.88237,8.2,8.530885,26.742663,43,l
5216.844335,80,1,8.3,6.5,7.8,8.530885,10,0,s
118.956178,89,1,7.5,5.8,6.6,4,10,0,m
244.341893,60,1,7.8,5.7,7.2,8.530885,18,13,m
6373.881407,88,1,8.3,6.5,7.8,8.530885,10,0,s
74.224849,60,1,7.8,6.5,7.3,8.530885,20,13,l
72.559343,60,1,7.8,6.5,7.3,8.530885,20,14,l
7538.028407,81,1,8.2,6.88237,8.3,8.530885,33,13,s
39.16215,50,3,7.7,6.88237,7.8,9,20,5,m
131.690842,85,1,9.1,7.2,8.3,8.530885,29,8,l
807.464904,73,1,7.8,6.7,7.9,6,33,0,s
71.238334,88,3,7.3,6.88237,8.009683,8.530885,26.742663,0,l
3534.82095,85,1,8,6.4,7.7,6,19,0,s
262.155004,85,1,8.1,6.88237,8.3,9,45,13,s
182.489034,89,1,8.3,6.88237,8.009683,9,22,17,s
108.050297,85,1,6.8,6.88237,8.009683,8.530885,40,69,s
2330.351533,88,1,8.2,6.88237,8.009683,8,32,0,s
87.500558,60,1,7.8,6.5,7.3,8.530885,20,0,m
93.630647,89,1,8,6.7,7.9,8,39,8,l
193.90613,85,1,9.1,7.2,8.3,8.530885,29,14,l
1841.573254,60,1,8.6,7.4,8.5,8.530885,20,0,s
10645.09725,80,1,9.5,6.88237,8.5,12,33,0,l
556.114572,85,1,9.1,7.2,8.3,8.530885,29,6,m
1985.681214,60,1,9.1,7,8.8,8.530885,30,11,l
374.049871,85,1,9.1,7.2,8.3,8.530885,29,42,m
208.845451,81,1,8.1,7.1,8.1,8.530885,18,17,m
4883.80365,89,1,7.6,5.4,7.7,8.530885,30,0,s
162.86337,89,1,9.5,6.88237,8.5,12,33,0,m
17893.56236,84,1,9.5,6.88237,8.5,12,33,0,s
408.348702,85,1,8.1,6.88237,8,8.530885,30,0,s
128.036326,85,1,7.9,6.88237,7.9,8.530885,35,69,s
166.492859,81,1,8.1,7.1,8.1,8.530885,18,9,l
163.632661,85,1,9.1,7.2,8.3,8.530885,29,9,l
72.511598,60,1,7.8,6.5,7.3,8.530885,20,12,m
318.370571,85,1,8.3,6.88237,8.1,8.530885,15,139,s
5.097402,89,1,8.4,6.7,8.2,8,33,12,m
223.79887,85,1,9.1,7.2,8.3,8.530885,29,16,l
183.645804,89,1,8.3,6.88237,8.009683,9,22,12,l
388.886823,85,1,7.6,6.5,7.6,6,33,6,s
1726.516895,60,1,9.1,7,8.8,8.530885,30,10,m
2115.890653,60,1,9.1,7,8.8,8.530885,30,5,l
4143.706092,80,1,7.7,6.5,7.5,8.530885,14,0,s
302.055089,85,1,7.8,6.8,7.7,8,24,6,s
57.645615,88,3,7.5,6.88237,7.5,8,26.742663,7,m
58.899108,85,1,8.3,6.88237,8.1,8.530885,15,0,m
181.406935,89,1,8.3,6.88237,8.009683,9,22,16,s
6955.938503,73,1,8.6,8,8.6,11,33,880,s
261.285607,60,1,9.1,7,8.8,8.530885,30,10,m
203.787432,85,1,8.3,6.88237,8.3,8.530885,26.742663,0,m
183.713519,89,1,8.3,6.88237,8.009683,9,22,7,s
39.064117,60,1,7.8,6.5,7.3,8.530885,20,7,s
2107.717143,60,1,9.1,7,8.8,8.530885,30,5,m
4924.539973,60,1,9.1,7,8.8,8.530885,30,0,s
6347.037496,88,1,9.1,7.2,8.3,8.530885,29,20,s
529.911,60,1,9.1,7,8.8,8.530885,30,0,m
229.634032,85,1,7.4,6.3,7.2,10,56,0,s
894.246337,82,1,7.8,6.88237,8.009683,8,40,0,s
98.961029,89,1,8.8,7.2,8.5,9,22,14,l
5039.688121,60,1,9.1,7,8.8,8.530885,30,9,l
6427.495032,60,1,9.1,7,8.8,8.530885,30,0,m
2238.086652,85,1,8.2,6.88237,8.3,8.530885,33,91,s
3754.20017,60,1,8.4,6.9,8.5,8.530885,34,45,s
10593.6796,88,1,8.8,7.2,8.5,9,22,0,s
2391.775857,81,1,8.1,7.1,8.1,8.530885,18,23.263212,s
3243.498482,88,3,9.2,6.88237,8.4,10,25,29,m
6421.936031,88,1,8,6.6,7.3,7,46,0,s
82.757842,85,1,9.1,7.2,8.3,8.530885,29,20,s
153.976872,85,1,8.3,6.9,8.1,8.530885,27,0,m
166.345151,81,1,8.1,7.1,8.1,8.530885,18,0,l
17003.23935,85,1,9.5,6.88237,8.5,12,33,8,m
10643.95038,80,1,9.5,6.88237,8.5,12,33,11,m
155.51578,85,1,7,6.88237,7,8.530885,34,0,s
97.038303,85,1,9.1,7.2,8.3,8.530885,29,12,l
107.121248,85,1,9.1,7.2,8.3,8.530885,29,7,l
19.772058,88,1,8,6.6,7.4,8.530885,33,6,m
1036.671046,87,1,7.5,6.88237,8.009683,6,57,23.263212,s
1030.295921,84,1,7.7,6.6,7.6,8,17,0,s
97.761996,89,1,8.8,7.2,8.5,9,22,16,l
127.10951,50,3,7.7,6.88237,7.8,9,20,4,m
7938.617375,88,1,9.1,7.2,8.3,8.530885,29,0,s
5927.246168,80,4,7.9,6.88237,7.9,8.530885,26.742663,0,s
119.871031,88,1,7.6,5.4,7.7,8.530885,30,0,m
96.27718,85,1,7.8,6.8,7.7,8,24,10,m
16972.83917,85,1,9.5,6.88237,8.5,12,33,57,m
232.190145,85,1,9.1,7.2,8.3,8.530885,29,9,l
60.570942,82,1,8.1,6.8,7.9,8.530885,24,18,m
262.103927,85,1,7.7,6.8,7.7,8,44,8,s
203.872111,74,1,4.4,5.2,4.4,8.530885,26,17,s
290.959542,85,1,7.4,6.88237,7.4,8.530885,26.742663,0,s
170.35933,86,1,7.9,6.88237,7.9,9,40,27,s
12.991942,80,3,7.7,6,7.2,9,2,0,m
121.392751,84,1,8.3,6.88237,8.3,10,20,11,m
4929.275909,85,3,7,5.8,7.1,8.530885,25,0,s
72.691895,85,1,7.5,6.88237,7.5,7,30,101,m
736.982264,89,1,8.3,6.88237,8.009683,9,22,7,s
84.411451,89,1,8.4,6.7,8.2,8,33,10,l
92.524077,85,1,7,6.88237,7,8.530885,34,108,s
265.97508,85,1,9.1,7.2,8.3,8.530885,29,10,l
85.424741,85,1,7.8,6.8,7.7,8,24,8,l
259.860977,85,1,9.1,7.2,8.3,8.530885,29,9,s
6879.088319,81,1,7.7,6.5,7.5,8.530885,14,10,s
17083.67979,85,1,9.5,6.88237,8.5,12,33,7,s
69.325615,50,1,7,6.88237,8.009683,8,21,0,s
698.605364,81,1,8.1,7.1,8.1,8.530885,18,7,s
10580.15889,81,1,8.2,6.88237,8.009683,8,25,3,s
14.726374,85,1,6.4,6.1,6.4,8.530885,14,100,s
7.760579,89,1,8.30368,6.88237,8.009683,8.530885,26.742663,0,m
7229.688406,88,1,9.1,7.2,8.3,8.530885,29,0,s
459.56667,85,1,9.1,7.2,8.3,8.530885,29,5,m
80.488218,85,1,7.1,6.4,7.4,8.530885,33,32,s
51.005977,85,3,7.5,6.9,7.2,9,10,5,m
3581.571508,80,3,8.6,6.88237,7.3,6,15,29,s
181.484385,89,1,8.3,6.88237,8.009683,9,22,18,s
229.731926,85,1,8.4,6.88237,8.5,8.530885,15,0,m
3631.583104,80,3,8.6,6.88237,7.3,6,15,75,m
84.185473,85,1,7.3,6.88237,8.009683,9,63,0,s
7425.378405,81,1,8,6.6,7.3,7,46,21,m
138.522588,85,1,9.1,7.2,8.3,8.530885,29,7,s
428.052406,85,1,9.1,7.2,8.3,8.530885,29,4,m
66.833509,85,1,7.9,6.88237,7.9,8.530885,35,0,m
82.966761,85,1,9.1,7.2,8.3,8.530885,29,13,l
120.346503,85,1,9.1,7.2,8.3,8.530885,29,9,l
17292.54027,85,1,9.5,6.88237,8.5,12,33,8,m
55.912153,85,1,8.3,6.9,8.1,8.530885,27,0,m
259.298127,85,1,7.7,6.6,7.6,8,17,5,s
13303.47594,89,1,9.1,7.2,8.3,8.530885,29,0,m
125.591127,85,1,9.1,7.2,8.3,8.530885,29,6,m
181.57008,89,1,8.3,6.88237,8.009683,9,22,14,m
294.980051,85,1,8.1,6.88237,8.3,9,45,0,m
3199.862363,81,1,9.1,7.2,8.3,8.530885,29,23.263212,s
87.260941,85,1,9.1,7.2,8.3,8.530885,29,9,l
472.691178,85,1,9.1,7.2,8.3,8.530885,29,5,m
17.477033,85,3,7.5,6.9,7.2,9,10,6,m
139.7496,89,1,8.4,6.7,8.2,8,33,8,m
13165.33811,89,1,9.1,7.2,8.3,8.530885,29,0,m
219.941829,60,1,7.7,6.1,7.2,8.530885,20,7,l
7.006691,85,3,7.5,6.9,7.2,9,10,7,m
1242.724082,81,1,7.6,6.6,7.5,8.530885,17,0,s
2190.949067,85,1,7.6,6.3,7.4,8.530885,24,0,s
290.325421,85,1,8.3,6.9,8.1,8.530885,27,0,s
131.740017,89,1,8.8,7.2,8.5,9,22,6,l
43.812672,60,1,7.8,6.5,7.3,8.530885,20,7,m
433.740563,85,1,8.2,6.88237,8.009683,6,7,52,s
15.020509,85,3,7.5,6.9,7.2,9,10,5,m
101.509233,85,1,9.1,7.2,8.3,8.530885,29,7,l
134.655936,85,1,9.1,7.2,8.3,8.530885,29,7,m
181.693793,87,1,6.2,6.88237,8.009683,5,10,0,s
101.629659,89,1,8.8,7.2,8.5,9,22,0,m
262.231999,60,1,9.1,7,8.8,8.530885,30,10,l
253.519038,85,1,9.1,7.2,8.3,8.530885,29,15,l
18616.07318,84,1,8.8,7.2,8.5,9,22,0,s
71.728126,85,1,8.3,6.9,8.1,8.530885,27,3,m
182.090539,89,1,8.3,6.88237,8.009683,9,22,14,m
11369.15946,82,1,8.3,6.88237,8.009683,9,22,0,s
97.743463,85,1,8.3,6.9,8.1,8.530885,27,8,m
9553.35276,81,1,9.1,7.2,8.3,8.530885,29,26,m
2943.190488,85,1,7.6,6.88237,8.009683,7,32,9,s
2415.75039,60,1,8.4,6.9,8.5,8.530885,34,10,s
811.406375,85,1,7.7,6.5,7.7,8,48,0,s
60.75723,82,1,8.1,6.8,7.9,8.530885,24,11,l
183.853472,88,1,7.5,6.88237,7.5,5,50,8,s
5649.160555,80,1,7.5,6.4,7.3,8.530885,33,0,s
9385.861804,81,1,8.3,6.88237,8.009683,9,22,12,s
5776.75984,85,3,9.2,6.88237,8.4,10,25,7,s
3003.87785,81,1,7.9,6.4,7.4,8,24,0,s
181.823305,89,1,8.3,6.88237,8.009683,9,22,15,m
134.836414,85,1,9.1,7.2,8.3,8.530885,29,11,m
1194.003055,85,3,6.8,6.3,6.9,8.530885,20,0,s
1242.191665,89,1,8.3,6.88237,8.009683,9,22,23.263212,s
192.743377,81,1,8.1,7.1,8.1,8.530885,18,9,m
2005.279216,81,1,7.6,6.4,7.3,8.530885,45,9,s
176.275639,81,1,7,6.88237,8.009683,5,19,12,s
99.692962,85,1,9.1,7.2,8.3,8.530885,29,5,m
7587.707079,81,1,9.5,6.88237,8.5,12,33,6,s
9347.055356,88,1,8.1,6.88237,8.009683,9,19,0,s
16872.85721,85,1,8.3,6.88237,8.009683,9,22,0,s
3453.794287,85,1,7.4,6.3,7.4,6,73,71,s
574.557961,85,1,7.9,6.88237,7.9,8.530885,35,0,s
3399.715488,85,1,8,6.4,7.7,6,19,5,s
387.189763,85,1,7.9,6.88237,7.9,8.530885,35,0,s
544.345828,60,1,9.1,7,8.8,8.530885,30,0,m
131.935835,89,1,8.2,6.88237,8.009683,8,25,9,m
5982.955703,80,1,9.1,7.2,8.3,8.530885,29,5,s
4065.875674,60,1,9.1,7,8.8,8.530885,30,0,s
5602.268125,60,1,9.1,7,8.8,8.530885,30,0,s
418.586262,85,1,7.8,6.8,7.7,8,24,34,m
5852.050594,80,1,8.3,6.9,8.1,8.530885,27,0,s
136.739306,85,1,8.3,6.88237,8.1,8.530885,15,0,m
117.554085,85,1,8.1,6.88237,8.3,9,45,0,l
260.433958,60,1,9.1,7,8.8,8.530885,30,11,l
716.287926,86,1,7.8,6.8,7.7,8,24,0,s
95.573985,85,1,9.1,7.2,8.3,8.530885,29,10,l
314.256416,60,1,7.8,5.7,7.2,8.530885,18,11,m
11487.48908,88,1,8.8,7.2,8.5,9,22,12,s
299.79977,85,1,8.2,6.88237,8.009683,6,7,0,m
121.712116,85,1,9.1,7.2,8.3,8.530885,29,11,l
134.033993,85,1,9.1,7.2,8.3,8.530885,29,7,l
230.084339,85,1,7.4,6.88237,7.4,8.530885,60,100,s
770.059038,74,1,7.3,6.88237,8.009683,10,33,0,s
5930.487618,80,1,7.9,6.88237,7.9,9,47,0,s
8804.526542,81,1,9.5,6.88237,8.5,12,33,7,m
4871.380278,80,1,8.2,6.88237,8,10,60,0,s
43.673133,60,1,7.8,6.5,7.3,8.530885,20,9,l
41.306574,60,1,7.8,6.5,7.3,8.530885,20,0,l
94.261694,85,1,9.1,7.2,8.3,8.530885,29,7,m
245.326114,60,1,7.8,5.7,7.2,8.530885,18,0,l
887.193978,85,1,7.7,6.6,7.6,8,17,10,s
263.220514,60,1,9.1,7,8.8,8.530885,30,6,l
434.603559,85,1,6.9,6.4,6.7,10,44,69,s
597.116415,85,1,7.9,6.6,7.9,5,33,4,s
5199.101939,80,1,8.3,6.5,7.8,8.530885,10,0,s
2725.499726,85,5,6.4,6.88237,6.4,8.530885,26.742663,647,l
6326.841247,81,1,9.1,7,8.8,8.530885,30,190,s
784.245992,84,1,7.7,6.6,7.6,8,17,9,m
31.781389,86,1,7.8,6.3,7.6,7,33,243,m
304.259637,85,1,9.1,7.2,8.3,8.530885,29,8,s
4872.767868,84,1,8.8,7,8,8,35,14,s
129.068928,85,1,9.1,7.2,8.3,8.530885,29,5,m
202.219637,60,1,7.7,6.1,7.2,8.530885,20,7,m
2130.096613,60,1,9.1,7,8.8,8.530885,30,0,m
104.19748,85,1,7.4,6.88237,7.4,8.530885,26.742663,40,l
69.775992,83,3,7.5,6.88237,8.009683,9,20,10,m
144.503365,87,3,9.2,6.88237,8.4,10,25,0,l
166.624418,87,3,7.8,6.88237,7.9,11,35,5,s
18.20013,60,1,8.6,7.2,8.4,8.530885,30,7,m
34.598641,74,1,8.30368,6.88237,8.009683,10,10,15,m
5039.736014,60,1,9.1,7,8.8,8.530885,30,12,l
49.152612,83,3,7.5,6.88237,8.009683,9,20,14,m
46.748275,85,3,7.5,6.9,7.2,9,10,4,m
251.93989,85,1,9.1,7.2,8.3,8.530885,29,9,l
851.703329,85,1,9.1,7.2,8.3,8.530885,29,0,m
57.671365,85,1,8.3,6.9,8.1,8.530885,27,5,m
151.886493,89,1,7.8,6.88237,8.009683,9,21,23.263212,s
11375.71989,88,1,9.5,6.88237,8.5,12,33,0,s
128.34649,85,1,7.4,6.2,7.1,8.530885,10,67,s
7570.536002,81,1,8.1,6.88237,8,8.530885,30,0,s
181.575616,89,1,8.3,6.88237,8.009683,9,22,12,m
1680.467629,82,1,7.3,6.88237,7.3,8.530885,33,1381,s
242.029212,85,1,9.1,7.2,8.3,8.530885,29,10,m
8939.126734,81,1,9.1,7,8.8,8.530885,30,6,s
304.548709,85,1,9.1,7.2,8.3,8.530885,29,21,l
6046.172282,60,1,9.1,7,8.8,8.530885,30,14,l
468.869076,85,1,7,6.88237,7,8.530885,34,67,s
50.846117,85,3,7.5,6.9,7.2,9,10,7,m
210.580412,85,1,9.1,7.2,8.3,8.530885,29,7,l
3302.593978,85,1,9,6.88237,8.5,7,22,0,m
358.346929,60,1,9.1,7,8.8,8.530885,30,5,m
4208.706718,87,1,8.8,7,8,8,35,0,s
9.901233,50,3,7,6.88237,7.2,11,40,39,l
135.771098,85,1,9.1,7.2,8.3,8.530885,29,7,s
9204.426507,88,1,9.5,6.88237,8.5,12,33,0,s
221.800356,60,1,7.7,6.1,7.2,8.530885,20,6,m
83.24591,85,1,9.1,7.2,8.3,8.530885,29,28,s
36.249298,60,3,7.8,6.5,7.5,11,28,7,m
212.363198,85,1,9.1,7.2,8.3,8.530885,29,0,l
134.490308,85,1,9.1,7.2,8.3,8.530885,29,14,l
3737.297187,80,3,8.6,6.88237,7.3,6,15,0,l
3805.412492,80,3,8.6,6.88237,7.3,6,15,0,m
128.287208,85,1,9.1,7.2,8.3,8.530885,29,11,m
3998.615558,80,1,8.6,6.88237,9.1,8.530885,33,0,m
15262.11282,86,1,9.5,6.88237,8.5,12,33,0,m
31.147034,50,1,7,6.88237,8.009683,8,21,6,m
713.160888,82,1,7.1,6.88237,8.009683,2,21,0,s
293.824519,85,1,8.2,6.88237,8.009683,6,7,36,s
10733.09136,80,1,9.5,6.88237,8.5,12,33,49,m
82.16882,50,1,6.6,6.88237,8.009683,7,7,3,s
1011.268147,81,1,7.4,6.88237,8.009683,7,55,8,s
260.136693,60,1,9.1,7,8.8,8.530885,30,8,l
1771.408481,88,1,7.9,6.88237,8.009683,4,14,23.263212,s
136.886657,85,1,7,6.88237,7,8.530885,34,0,s
132.448892,85,1,9.1,7.2,8.3,8.530885,29,15,l
5926.204421,60,1,9.1,7,8.8,8.530885,30,5,m
182.5468,89,1,8.3,6.88237,8.009683,9,22,0,m
94.646406,85,1,9.1,7.2,8.3,8.530885,29,6,l
136.262116,85,1,9.1,7.2,8.3,8.530885,29,10,l
3339.663678,84,1,9.1,7.2,8.3,8.530885,29,7,s
426.09192,85,1,9.1,7.2,8.3,8.530885,29,0,s
3982.02934,85,1,7.4,6.3,7.4,6,73,0,s
9412.393079,81,1,8.3,6.88237,8.009683,9,22,12,s
98.376445,85,1,9.1,7.2,8.3,8.530885,29,13,l
110.236107,83,3,8.2,6.5,8.1,9,33,0,s
5767.34431,85,3,9.2,6.88237,8.4,10,25,22,s
1.781237,74,1,7.2,6.88237,7.2,8.530885,33,0,s
409.002925,85,1,7.4,6.88237,8.2,8.530885,33,0,s
116.033831,85,1,9.1,7.2,8.3,8.530885,29,10,m
107.867288,85,1,7.5,6.88237,8.009683,5,40,6,s
201.213423,81,1,8.1,7.1,8.1,8.530885,18,17,l
303.668082,85,1,9.1,7.2,8.3,8.530885,29,7,s
59.2209,82,1,8.1,6.8,7.9,8.530885,24,22,m
9227.054795,89,1,8.1,6.88237,8.009683,9,19,14,s
274.156057,85,1,7.8,6.8,7.7,8,24,46,m
272.108333,85,1,9.1,7.2,8.3,8.530885,29,9,l
588.339913,89,1,8.3,6.88237,8.009683,9,22,12,m
215.256083,85,1,9.1,7.2,8.3,8.530885,29,23,l
252.1531,89,1,8.8,7.2,8.5,9,22,12,l
1212.378037,85,1,8.3,7.3,8.1,9,14,46,s
262.931552,60,1,9.1,7,8.8,8.530885,30,12,l
2470.080436,81,1,7.6,6.4,7.3,8.530885,45,0,s
194.280395,85,1,9.1,7.2,8.3,8.530885,29,15,l
15718.09113,85,1,7.9,6.88237,7.8,10,43,95,s
278.797959,85,1,8.4,6.88237,8.5,8.530885,15,0,l
239.817123,74,1,7.3,6.7,7.2,8.530885,10,0,m
87.275311,85,1,7.7,6.8,7.7,8,44,80,s
17112.25289,85,1,9.5,6.88237,8.5,12,33,0,s
179.500415,85,1,9.1,7.2,8.3,8.530885,29,6,l
17110.98428,85,1,9.5,6.88237,8.5,12,33,0,s
73.566449,85,1,7.7,6.88237,7.7,8.530885,30,0,s
1037.150095,84,1,7.7,6.6,7.6,8,17,0,s
12.317144,50,1,7.6,6.3,7.8,10,13,0,m
90.685991,85,1,9.1,7.2,8.3,8.530885,29,7,m
18.357585,89,1,8.3,6.88237,8.009683,9,22,11,m
151.213372,89,1,7.4,6.88237,7.4,9,30,7,s
608.118752,89,1,8.8,7.2,8.5,9,22,0,l
9209.470466,88,1,9.5,6.88237,8.5,12,33,0,s
46.349701,82,1,8.1,6.8,7.9,8.530885,24,11,l
10496.14163,88,1,8.8,7.2,8.5,9,22,0,s
8161.80963,87,1,7.9,6.4,7.4,8,24,6,s
1218.11965,60,1,9.1,7,8.8,8.530885,30,6,m
94.142013,85,1,9.1,7.2,8.3,8.530885,29,8,l
93.346208,85,1,9.1,7.2,8.3,8.530885,29,8,l
89.994882,85,1,7.2,6.2,6.8,8.530885,37,0,s
7756.955936,88,1,9.1,7.2,8.3,8.530885,29,288,s
24.476543,74,3,7,6.8,7.3,8.530885,13,8,m
6124.604036,80,1,9.1,7.2,8.3,8.530885,29,8,m
4710.414913,60,1,9.1,7,8.8,8.530885,30,6,s
4315.163477,85,1,7.9,6.6,7.6,6,33,0,s
130.51091,85,1,9.1,7.2,8.3,8.530885,29,10,m
182.456351,89,1,8.3,6.88237,8.009683,9,22,15,s
430.522296,85,1,9.1,7.2,8.3,8.530885,29,5,m
533.145188,60,1,9.1,7,8.8,8.530885,30,78,m
194.670833,85,1,8.2,6.88237,8.009683,6,7,0,m
155.954705,85,1,8.3,6.88237,8.1,8.530885,15,0,s
231.829744,85,1,8.4,6.88237,8.5,8.530885,15,58,l
182.965314,89,1,8.3,6.88237,8.009683,9,22,13,s
177.970911,85,1,9.1,7.2,8.3,8.530885,29,10,l
636.070071,85,1,7.7,6.6,7.6,8,17,4,s
241.589769,85,1,9.1,7.2,8.3,8.530885,29,10,l
28.247948,86,1,7.2,6.3,7.2,8,27,0,s
182.813477,89,1,8.3,6.88237,8.009683,9,22,15,m
37.274495,85,1,8.1,6.88237,8,8.530885,30,0,m
5281.979733,89,1,8.2,6.88237,8.009683,9,47,0,s
141.346526,89,1,8.3,6.88237,8.009683,9,22,14,l
12649.94343,89,1,8.6,6.88237,9.1,8.530885,33,8,s
5987.648868,80,1,7.5,6.88237,8.009683,8.530885,10,5,s
655.371458,85,1,6.9,6.88237,8.009683,8,9,72,s
936.155091,85,1,8.3,6.88237,8.009683,10,40,0,s
205.448269,85,1,9.1,7.2,8.3,8.530885,29,8,l
46.692893,50,1,7,6.88237,8.009683,8,21,9,s
10033.95241,82,1,7.7,6.5,7.5,8.530885,14,9,s
129.707672,60,1,7.8,6.5,7.3,8.530885,20,0,l
3756.874797,80,1,9,6.88237,8.5,7,22,6,s
580.194655,60,1,9.1,7,8.8,8.530885,30,14,l
4997.780779,80,1,9,6.88237,8.5,7,22,0,m
133.968377,85,1,8.3,6.9,8.1,8.530885,27,5,s
181.939557,89,1,8.3,6.88237,8.009683,9,22,16,m
63.382621,89,1,8,6.7,7.9,8,39,7,m
416.694999,85,1,9.1,7.2,8.3,8.530885,29,16,m
4959.106804,89,1,8.2,6.88237,8.009683,9,47,0,s
208.87984,81,1,8.1,7.1,8.1,8.530885,18,17,m
3846.599011,80,1,8,6.4,7.7,6,19,0,s
6992.45981,88,1,8.7,7.7,7.8,6,30,0,s
696.074579,85,1,7.7,6.6,7.6,8,17,0,s
224.001003,85,1,9.1,7.2,8.3,8.530885,29,9,m
441.403977,85,1,6.9,6.88237,8.009683,8,9,7,s
143.907533,84,1,6.7,6.5,6.7,8.530885,13,0,s
96.072471,85,1,9.1,7.2,8.3,8.530885,29,11,l
181.409162,89,1,8.3,6.88237,8.009683,9,22,20,s
9.589286,84,6,8.30368,6.88237,8.009683,9,26.742663,42,m
197.198731,85,1,9.1,7.2,8.3,8.530885,29,8,m
11183.44648,80,1,9.5,6.88237,8.5,12,33,0,m
121.219944,85,1,9.1,7.2,8.3,8.530885,29,7,m
175.758612,85,1,9.1,7.2,8.3,8.530885,29,6,l
1193.313191,60,1,7.7,6.1,7.2,8.530885,20,0,s
3086.076897,81,1,8,7.2,7.8,7,55,0,s
115.881251,85,1,9.1,7.2,8.3,8.530885,29,16,l
8566.313802,80,1,8.3,6.88237,8.3,10,20,0,s
544.328399,85,3,7.5,6.9,7.2,9,10,93,s
1819.741819,60,1,9.1,7,8.8,8.530885,30,10,l
5987.252238,80,1,9.1,7.2,8.3,8.530885,29,0,m
188.86379,89,1,8.3,6.88237,8.009683,9,22,10,m
410.559718,89,1,8.2,6.88237,8.4,11,25,32,m
898.821425,85,1,8.3,6.88237,8.009683,10,40,45,s
1733.194433,60,1,9.1,7,8.8,8.530885,30,8,l
1841.237097,60,1,9.1,7,8.8,8.530885,30,7,m
2501.463725,88,3,9.2,6.88237,8.4,10,25,5,m
288.3238,85,1,8.3,6.9,8.1,8.530885,27,435,s
7630.525014,81,1,9.5,6.88237,8.5,12,33,4,m
537.882609,85,1,7.8,6.8,7.7,8,24,7,s
5895.53246,60,1,9.1,7,8.8,8.530885,30,0,m
1190.405121,60,3,8,7.7,8,10,15,0,m
600.766362,85,1,8.3,6.9,8.1,8.530885,27,0,s
247.240711,84,1,8,6.4,7.9,6,33,0,m
16990.98791,85,1,9.5,6.88237,8.5,12,33,33,m
196.948262,89,1,8.3,6.88237,8.009683,9,22,0,l
7912.128747,88,1,9.5,6.88237,8.5,12,33,2,s
189.071948,85,1,9.1,7.2,8.3,8.530885,29,9,l
36.240176,60,1,7.8,6.5,7.3,8.530885,20,8,m
9852.147135,81,1,8.5,6.88237,8.3,11,70,7,s
92.719876,89,1,8.2,6.88237,8.009683,8,25,12,m
183.413394,89,1,8.3,6.88237,8.009683,9,22,6,m
2005.766109,85,1,9,6.88237,8.5,7,22,0,s
3795.961987,80,1,8.6,6.88237,9.1,8.530885,33,0,m
89.777592,85,1,7.4,6.6,7.4,10,66,0,s
2517.83143,60,1,9.1,7,8.8,8.530885,30,0,m
413.745433,85,1,7.5,6.88237,7.5,7,30,101,s
264.907893,60,1,9.1,7,8.8,8.530885,30,5,l
47.487419,85,1,7.1,6.4,6.9,8.530885,28,7,s
186.048363,81,1,8.1,7.1,8.1,8.530885,18,3,l
8850.174422,88,1,8.2,6.88237,8.009683,8,25,12,s
323.192745,85,1,8.4,6.88237,8.5,8.530885,15,0,m
7680.558012,88,1,8.3,7.3,8.1,9,14,0,s
181.331343,89,1,8.3,6.88237,8.009683,9,22,12,s
6221.602443,80,1,9.1,7.2,8.3,8.530885,29,2,m
20.167209,50,3,7.7,6.88237,7.8,9,20,7,m
51.103311,85,3,7.5,6.9,7.2,9,10,9,m
1704.388496,60,1,9.1,7,8.8,8.530885,30,10,l
2080.650552,85,1,9,6.88237,8.5,7,22,0,m
242.799382,85,1,8,6.88237,8,5,26.742663,40,m
94.023656,85,1,9.1,7.2,8.3,8.530885,29,11,l
7822.463309,82,1,8.8,7,8,8,35,0,s
7586.717735,81,1,9.5,6.88237,8.5,12,33,8,s
485.452593,85,1,8.2,6.88237,8.009683,6,7,0,s
161.333553,82,1,8.1,6.8,7.9,8.530885,24,39,l
1635.265255,88,1,7.9,6.88237,8.009683,4,14,23.263212,s
14088.07892,80,1,8.1,6.88237,8.009683,8.530885,48,9,s
318.704985,85,1,9.1,7.2,8.3,8.530885,29,9,m
277.955213,85,1,7.1,6.88237,8.009683,8.530885,25,8,s
39.809151,85,1,8.3,6.88237,8.1,8.530885,15,0,m
126.361728,85,1,7.7,6.6,7.6,8,17,4,m
569.814029,85,1,7.3,6.88237,7.3,8.530885,40,145,s
181.40578,89,1,8.3,6.88237,8.009683,9,22,7,s
2126.180843,60,1,9.1,7,8.8,8.530885,30,26,m
3876.812445,80,1,8.6,6.88237,9.1,8.530885,33,0,m
129.967734,85,1,9.1,7.2,8.3,8.530885,29,9,l
132.26597,85,1,9.1,7.2,8.3,8.530885,29,12,m
216.903963,85,1,8.3,6.88237,8.1,8.530885,15,6,m
1830.203895,82,1,8.1,6.88237,8.009683,9,19,0,s
7251.535568,73,1,8.6,8,8.6,11,33,560,s
5907.557181,88,1,8.6,6.88237,9.1,8.530885,33,10,s
13343.96185,89,1,9.1,7.2,8.3,8.530885,29,0,s
430.554813,87,1,7.6,6.88237,7.4,8.530885,20,0,s
7823.72971,81,1,8.8,7,8,8,35,0,s
4955.115098,80,1,9,6.88237,8.5,7,22,0,m
15373.9174,89,1,8.8,7,8,8,35,0,s
347.551861,85,1,7.5,6.88237,7.5,8.530885,20,20,s
3482.749222,80,3,8.6,6.88237,7.3,6,15,0,l
1534.942086,81,1,7.7,6.88237,8.009683,7,10,23.263212,s
182.287052,89,1,8.3,6.88237,8.009683,9,22,12,m
277.705292,60,1,7.7,6.1,7.2,8.530885,20,9,s
4968.849512,80,1,9,6.88237,8.5,7,22,8,m
509.259438,85,1,7.2,6.6,7.2,8.530885,26.742663,0,s
95.233299,85,1,9.1,7.2,8.3,8.530885,29,8,l
133.725008,60,1,7.8,6.5,7.3,8.530885,20,13,s
50.778745,60,1,7.8,6.5,7.3,8.530885,20,10,l
122.078564,85,1,7.4,6.88237,7.4,8.530885,10,4,s
203.383347,85,1,6.4,6.1,8.009683,8.530885,40,67,s
2503.968296,60,1,9.1,7,8.8,8.530885,30,0,m
145.489638,85,1,7.5,6.88237,8.009683,8.530885,33,0,s
1791.219395,60,1,9.1,7,8.8,8.530885,30,4,l
182.648949,89,1,8.3,6.88237,8.009683,9,22,18,l
3126.445601,81,1,8.1,7.1,8.1,8.530885,18,7,s
1629.534362,89,1,8,6.7,7.9,8,39,0,s
647.859911,60,1,9.1,7,8.8,8.530885,30,6,l
282.255909,85,1,8.4,6.88237,8.5,8.530885,15,0,m
107.266109,60,1,9.1,7,8.8,8.530885,30,14,m
248.258664,85,1,9.1,7.2,8.3,8.530885,29,10,l
140.90586,86,1,8.3,7.3,8.1,9,14,11,m
373.441341,85,1,9.1,7.2,8.3,8.530885,29,7,m
10685.79779,88,1,9.5,6.88237,8.5,12,33,0,s
443.651508,85,1,5.7,5.4,5.1,8.530885,33,0,s
1774.956772,60,1,9.1,7,8.8,8.530885,30,4,l
10608.8096,81,1,8,6.4,7.7,6,19,0,s
358.900895,85,1,9.1,7.2,8.3,8.530885,29,5,m
742.616782,86,1,7.5,6.88237,8.009683,5,40,7,s
15416.95009,89,1,8.8,7,8,8,35,0,s
3261.061329,89,1,9.5,6.88237,8.5,12,33,0,s
1250.923094,85,1,9.1,7.2,8.3,8.530885,29,34,s
229.663689,85,1,8.2,6.88237,8.009683,6,7,0,s
127.728478,60,1,7.8,6.5,7.3,8.530885,20,13,l
1907.179549,89,1,8.2,6.88237,8.009683,8,25,0,s
15706.08131,85,1,8.4,6.7,8.2,8,33,0,s
210.87984,86,1,8.30368,6.88237,8.009683,8.530885,26.742663,0,l
8942.782766,60,1,9.1,7,8.8,8.530885,30,11,m
2128.461836,88,3,9.2,6.88237,8.4,10,25,26,m
6309.607849,80,1,9.1,7.2,8.3,8.530885,29,11,m
4160.568432,80,3,8.1,6.88237,8.1,8.530885,25,47,s
114.055062,85,1,9.1,7.2,8.3,8.530885,29,11,l
2667.952076,88,3,9.2,6.88237,8.4,10,25,13,s
187.073437,81,1,8.1,7.1,8.1,8.530885,18,14,l
8.226268,81,1,8,6.88237,8,8.530885,33,6,m
5850.464376,80,3,9.2,6.88237,8.4,10,25,6,s
91.135114,83,3,8.2,6.5,8.1,9,33,21,m
95.634614,85,1,9.1,7.2,8.3,8.530885,29,7,m
1771.307804,81,1,8.1,6.88237,8.009683,9,19,0,s
517.580354,85,1,9.1,7.2,8.3,8.530885,29,7,l
77.978283,85,1,8.2,6.88237,8.2,8.530885,26.742663,0,m
114.910011,85,1,9.1,7.2,8.3,8.530885,29,24,l
197.228587,89,1,8.3,6.88237,8.009683,9,22,5,m
255.161237,60,1,9.1,7,8.8,8.530885,30,12,l
379.246775,85,1,8.4,6.88237,8.5,8.530885,15,21,m
4575.384876,80,3,9.2,6.88237,8.4,10,25,0,s
134.302214,85,1,9.1,7.2,8.3,8.530885,29,7,s
2008.099665,85,1,9,6.88237,8.5,7,22,7,m
1816.911531,60,1,9.1,7,8.8,8.530885,30,9,m
92.09332,86,1,8.3,6.88237,8.009683,10,40,460,m
591.634851,85,1,9.1,7.2,8.3,8.530885,29,7,m
11171.32004,80,1,9.5,6.88237,8.5,12,33,0,m
10407.71914,88,1,8.2,6.88237,8.009683,6,7,0,s
16760.64373,85,1,8.3,6.88237,8.009683,9,22,4,s
3623.59683,80,3,8.6,6.88237,7.3,6,15,0,l
123.223806,85,1,9.1,7.2,8.3,8.530885,29,7,s
80.815246,85,1,8.1,6.88237,8,8.530885,30,0,m
35.444218,74,1,7.6,6.3,7.4,10,10,0,s
114.087548,89,1,8.3,6.88237,8.009683,9,22,6,m
4859.069668,88,1,8.6,6.88237,9.1,8.530885,33,7,s
669.522243,85,1,6.9,6.88237,8.009683,8,9,17,s
9319.256546,81,1,9.5,6.88237,8.5,12,33,0,s
52.568327,60,1,7.8,6.5,7.3,8.530885,20,17,m
3689.11723,89,1,7.5,5.8,6.6,4,10,0,s
6344.915525,85,3,9.2,6.88237,8.4,10,25,69,s
0,60,4,8.30368,6.88237,8.009683,8.530885,26.742663,2186,m
101.39903,85,1,9.1,7.2,8.3,8.530885,29,6,l
815.417832,85,1,7,5.8,7,8.530885,15,7,s
5864.589346,81,1,9.1,7,8.8,8.530885,30,28,s
89.643572,85,1,9.1,7.2,8.3,8.530885,29,8,l
98.154909,85,1,9.1,7.2,8.3,8.530885,29,6,m
35.497702,60,1,7.8,6.5,7.3,8.530885,20,11,l
208.344742,85,1,9.1,7.2,8.3,8.530885,29,6,m
1654.886331,60,1,9.1,7,8.8,8.530885,30,7,s
8947.086055,81,1,9.1,7,8.8,8.530885,30,4,s
3293.044332,80,1,7.8,6.2,7.2,8.530885,33,0,s
7707.867681,81,1,8.3,6.88237,8.009683,10,40,0,s
35.800903,88,1,7.4,6.88237,8.009683,8.530885,26,7,m
12274.45131,82,1,8.2,6.88237,8.009683,8,25,9,s
255.873839,85,1,6.9,6.88237,8.009683,8,9,0,s
8187.435251,81,1,8,6.4,7.7,6,19,0,s
4374.664652,60,1,9.1,7,8.8,8.530885,30,6,m
328.125909,50,1,6.8,6.5,6.9,10,12,64,m
2725.499726,60,3,7.8,6.5,7.5,11,28,647,m
6079.500543,85,3,9.2,6.88237,8.4,10,25,16,s
410.868651,85,1,9.1,7.2,8.3,8.530885,29,0,s
189.11826,81,1,8.1,7.1,8.1,8.530885,18,7,l
6361.558998,60,1,9.1,7,8.8,8.530885,30,0,m
1997.773257,88,1,7.9,6.88237,8.009683,4,14,0,s
2725.499726,81,3,7.1,6.88237,7.2,4,12,647,m
13205.68058,89,1,9.1,7.2,8.3,8.530885,29,6,m
5052.130731,81,1,8.8,7,8,8,35,0,s
125.395193,85,1,9.1,7.2,8.3,8.530885,29,7,m
13315.86983,89,1,9.1,7.2,8.3,8.530885,29,25,m
39.237476,74,1,7.6,6.3,7.4,10,10,11,m
115.429436,85,1,6.9,6.4,6.9,8.530885,33,69,s
258.446808,85,1,9.1,7.2,8.3,8.530885,29,11,m
27.751956,88,1,6.9,6.5,7.1,9,19,10,s
636.721135,85,1,7.4,6.88237,7.4,8.530885,60,0,s
78.541659,85,1,8.1,6.88237,8,8.530885,30,0,l
104.54324,85,1,7.9,6.88237,7.6,8.530885,26.742663,11,m
833.069878,85,1,7.6,6.88237,7.3,8.530885,74,7,s
41.80215,89,1,8,6.7,7.9,8,39,16,m
80.031477,85,1,9.1,7.2,8.3,8.530885,29,5,l
259.442865,85,1,8.2,6.88237,8.009683,6,7,0,m
10.239152,81,1,5.4,6.88237,8.009683,9,7,372,s
29.164004,82,4,4.6,6.88237,4.6,8.530885,33,0,s
5923.376957,88,1,7.9,6.6,7.9,5,33,0,s
5338.228611,80,1,8.3,6.5,7.8,8.530885,10,0,s
417.901122,85,1,9.1,7.2,8.3,8.530885,29,5,m
107.164652,85,1,9.1,7.2,8.3,8.530885,29,7,m
245.272914,85,1,8.2,6.88237,8.009683,6,7,29,m
3150.078972,80,1,9.1,7.2,8.3,8.530885,29,6,s
660.533028,60,1,9.1,7,8.8,8.530885,30,11,l
1013.664064,86,1,9.1,7.2,8.3,8.530885,29,0,s
10964.81776,88,1,9.5,6.88237,8.5,12,33,12,s
11926.44127,87,1,9.5,6.88237,8.5,12,33,106,s
317.773974,85,1,8.3,6.88237,8.009683,10,40,3,s
130.845077,85,1,9.1,7.2,8.3,8.530885,29,8,m
1635.657877,87,1,8.6,6.88237,9.1,8.530885,33,0,s
462.380896,85,1,9.1,7.2,8.3,8.530885,29,7,s
4119.739545,85,1,8.7,7.7,7.8,6,30,8,s
76.913392,88,1,8.1,6.88237,8.2,10,35,0,s
875.831078,85,1,8.5,7.7,8.1,9,13,8,s
4044.681196,85,1,7.6,6.5,7.8,8.530885,13,0,s
426.508554,85,1,7.5,6.88237,7.5,8.530885,20,0,s
352.200108,86,1,9,6.88237,8.5,7,22,0,l
52.337019,85,3,7.5,6.9,7.2,9,10,14,l
959.145807,81,1,7.4,6.88237,8.009683,7,55,0,s
1825.62054,60,1,9.1,7,8.8,8.530885,30,7,m
603.281959,85,0,8.30368,4.9,8.009683,8.530885,10,9,s
126.8474,85,1,9.1,7.2,8.3,8.530885,29,6,m
261.631105,85,1,8.4,6.88237,8.5,8.530885,15,0,m
130.061365,85,1,9.1,7.2,8.3,8.530885,29,8,l
2505.916761,60,1,9.1,7,8.8,8.530885,30,19,m
864.985319,85,1,7.7,6.5,7.7,8,48,0,s
4586.299622,60,1,9.1,7,8.8,8.530885,30,27,m
9217.872155,88,1,8.4,6.7,8.2,8,33,12,s
99.254523,89,1,8.8,7.2,8.5,9,22,14,l
9735.184227,81,1,9.1,7.2,8.3,8.530885,29,0,s
2942.183556,81,1,8.1,7.1,8.1,8.530885,18,5,s
5259.688842,88,1,8.3,6.88237,8.009683,9,22,0,s
17031.38072,85,1,9.5,6.88237,8.5,12,33,0,m
9730.387346,81,1,8.3,6.88237,8.009683,9,22,0,s
150.741354,84,1,7.4,6.88237,8.009683,8.530885,34,1,s
24.831316,74,3,7,6.8,7.3,8.530885,13,14,m
11175.34928,80,1,9.5,6.88237,8.5,12,33,0,s
11174.7562,80,1,9.5,6.88237,8.5,12,33,0,s
10087.1793,88,1,8.2,6.88237,8.009683,8,25,20,s
245.293408,85,1,9.1,7.2,8.3,8.530885,29,5,l
4039.534557,85,1,8,6.4,7.7,6,19,7,s
135.098697,85,1,9.1,7.2,8.3,8.530885,29,16,l
45.344355,87,1,7.3,5.9,7.1,8.530885,24,8,s
99.306211,87,3,8.6,6.88237,7.3,6,15,7,l
357.020434,87,1,7.9,6.88237,8.009683,4,14,23.263212,s
5299.645681,80,1,7.5,5.9,7.7,8.530885,33,0,s
185.740737,81,1,8.1,7.1,8.1,8.530885,18,10,l
133.179359,85,1,9.1,7.2,8.3,8.530885,29,7,l
3683.202589,80,1,8.6,6.88237,9.1,8.530885,33,15,s
39.529093,89,1,8.8,7.2,8.5,9,22,16,l
354.547217,84,3,3.7,6.88237,3.7,8.530885,8,0,s
2212.214077,85,1,7.3,6.88237,7.3,8.530885,36,95,s
30.395991,50,1,7,6.88237,8.009683,8,21,5,s
215.553294,85,1,6.9,6.7,6.9,8.530885,10,0,s
245.58231,85,1,8.3,7.3,8.1,9,14,15,s
47.349433,87,3,6.3,6.88237,7,8.530885,26.742663,24,m
4372.242463,88,1,8.6,6.88237,9.1,8.530885,33,0,s
653.890093,81,1,8.1,7.1,8.1,8.530885,18,4,m
371.22828,85,1,7,6.88237,8.009683,8.530885,26.742663,535,m
45.603955,50,1,8.30368,6.88237,8.009683,8.530885,26.742663,17,m
1415.362441,85,1,8.1,6.88237,8.3,9,45,0,s
84.073109,81,1,6.5,6.88237,8.009683,9,8,0,s
3544.805608,85,1,7.6,6.88237,7.6,8.530885,25,0,s
571.450095,89,1,8.4,6.7,8.2,8,33,0,s
83.227636,85,1,7.1,6.4,6.9,8.530885,28,4,s
1780.124484,88,1,7.6,6.88237,8.009683,8,33,12,s
4808.633685,85,1,8.6,6.88237,9.1,8.530885,33,0,s
11378.56147,81,1,8.3,6.88237,8.3,11,40,711,m
40.228507,83,3,7.5,6.88237,8.009683,9,20,13,m
302.471449,81,1,8.1,7.1,8.1,8.530885,18,16,l
748.896252,85,0,8.30368,4.9,8.009683,8.530885,10,0,s
10765.16118,87,1,8,6.6,7.3,7,46,5,s
14090.99478,71,1,9.1,7,8.8,8.530885,30,6,s
96.900576,85,1,9.1,7.2,8.3,8.530885,29,11,l
117.538012,85,1,9.1,7.2,8.3,8.530885,29,6,m
888.487814,87,1,7.7,6.5,7.5,8.530885,14,14,s
17155.67306,85,1,9.5,6.88237,8.5,12,33,0,s
257.249737,89,1,8.3,6.88237,8.009683,9,22,16,m
3632.598072,80,3,8.6,6.88237,7.3,6,15,92,m
53.510638,82,1,7.5,6.4,7.3,8.530885,33,81,m
641.924531,85,1,8.5,7.7,8.1,9,13,0,s
2186.019154,81,1,8.1,6.4,8.2,7,10,0,s
184.579636,81,1,8.1,7.1,8.1,8.530885,18,19,l
49.899468,83,3,7.5,6.88237,8.009683,9,20,13,l
3324.688289,80,1,7.8,7.9,7.5,5,50,6,s
150.296096,89,1,8.8,7.2,8.5,9,22,0,l
9304.69008,88,1,8.2,6.88237,8.009683,8,25,4,s
6621.85571,80,1,8.2,6.88237,8.009683,9,47,0,s
189.002315,81,1,8.1,7.1,8.1,8.530885,18,27,l
9770.624389,81,1,8.8,7.2,8.5,9,22,0,s
8727.701837,81,1,9.5,6.88237,8.5,12,33,0,s
2594.927243,81,1,7.7,6.88237,8.009683,7,10,0,s
20.487924,88,1,8.1,6.88237,8.3,8.530885,60,85,m
2640.80619,85,1,8.8,7,8,8,35,0,s
432.945679,87,1,8.6,6.88237,9.1,8.530885,33,7,l
13037.51379,87,1,8.3,6.88237,8.009683,9,22,0,s
10639.10702,80,1,9.5,6.88237,8.5,12,33,0,m
1741.683048,60,1,9.1,7,8.8,8.530885,30,5,l
1144.610687,85,1,6.9,6.88237,8.009683,8,9,0,s
2608.38705,85,1,8.8,7,8,8,35,0,s
2601.339117,81,1,8,7.2,7.8,7,55,5,s
8643.37683,88,1,9.1,7.2,8.3,8.530885,29,0,s
188.219116,85,1,9.1,7.2,8.3,8.530885,29,17,l
181.887677,89,1,8.3,6.88237,8.009683,9,22,26,m
179.260373,82,1,8.1,6.8,7.9,8.530885,24,15,m
11018.63402,80,1,9.5,6.88237,8.5,12,33,0,m
189.117577,81,1,8.1,7.1,8.1,8.530885,18,7,l
88.349972,85,1,9.1,7.2,8.3,8.530885,29,6,s
261.04508,60,1,9.1,7,8.8,8.530885,30,10,m
523.841659,89,1,8.30368,6.88237,8.009683,8.530885,26.742663,144,m
4716.489512,85,3,7,5.8,7.1,8.530885,25,0,s
777.724701,84,1,7.5,6.88237,7.5,9,10,9,s
262.687852,60,1,9.1,7,8.8,8.530885,30,0,l
85.0484,85,1,9.1,7.2,8.3,8.530885,29,10,l
60.272147,83,3,7.5,6.88237,8.009683,9,20,11,m
568.022547,60,1,9.1,7,8.8,8.530885,30,0,m
56.599352,60,3,7.8,6.5,7.5,11,28,0,m
7426.671581,88,1,8.3,6.88237,8.009683,10,40,5,s
514.393021,85,1,7,6.88237,8.009683,8.530885,40,0,s
63.779801,83,3,7.5,6.88237,8.009683,9,20,0,l
428.410045,85,1,9.1,7.2,8.3,8.530885,29,11,m
181.540725,89,1,8.3,6.88237,8.009683,9,22,14,s
181.66352,89,1,8.3,6.88237,8.009683,9,22,12,m
15.808265,74,1,8.30368,6.88237,8.009683,10,10,41,l
33.395222,50,1,7,6.88237,8.009683,8,21,4,s
80.316832,85,1,9.1,7.2,8.3,8.530885,29,9,l
85.744002,85,1,7.1,6.88237,8.009683,9,49,0,s
187.721147,88,1,7.6,5.4,7.7,8.530885,30,7,l
16615.16659,85,1,8.3,6.88237,8.009683,9,22,6,s
259.743587,60,1,9.1,7,8.8,8.530885,30,8,l
231.535375,85,1,8.3,6.88237,8.1,8.530885,15,0,m
10983.71629,80,1,9.5,6.88237,8.5,12,33,0,m
911.322174,85,1,7.4,6.88237,7.4,8.530885,60,4,s
136.031853,85,1,9.1,7.2,8.3,8.530885,29,8,l
1744.428524,60,1,9.1,7,8.8,8.530885,30,6,l
318.862441,85,1,7.4,6.2,7.1,8.530885,10,7,s
5387.479352,76,3,9.2,6.88237,8.4,10,25,9,s
223.216145,84,1,8,6.4,7.9,6,33,8,m
53.167202,85,3,7.5,6.9,7.2,9,10,10,l
188.493306,85,1,9.1,7.2,8.3,8.530885,29,6,l
5274.165952,80,1,7.2,7.2,7.2,4,65,0,s
10552.95195,89,3,9.2,6.88237,8.4,10,25,0,s
97.99323,85,1,9.1,7.2,8.3,8.530885,29,7,l
320.555375,60,1,7.8,5.7,7.2,8.530885,18,8,m
187.235669,81,1,8.1,7.1,8.1,8.530885,18,0,l
366.873079,85,1,9.1,7.2,8.3,8.530885,29,0,s
2916.495887,87,1,9.1,7.2,8.3,8.530885,29,68,m
4987.530637,88,1,8.6,6.88237,9.1,8.530885,33,5,s
17598.47917,85,1,9.5,6.88237,8.5,12,33,0,s
594.079652,85,1,9.1,7.2,8.3,8.530885,29,25,s
1964.422793,85,1,8.8,7,8,8,35,0,s
314.325987,85,1,7.3,6.88237,8.009683,9,63,0,s
7.264221,85,3,7.5,6.9,7.2,9,10,0,m
439.346302,85,1,9.1,7.2,8.3,8.530885,29,4,m
17597.08493,85,1,9.5,6.88237,8.5,12,33,0,s
6167.987931,85,1,7.7,6.4,7.9,8.530885,33,0,s
281.940989,85,1,7.6,6.5,7.6,6,33,0,s
2821.60384,85,1,8.8,7,8,8,35,292,s
17021.5429,85,1,9.5,6.88237,8.5,12,33,5,m
181.297366,89,1,8.3,6.88237,8.009683,9,22,17,s
570.034615,60,1,9.1,7,8.8,8.530885,30,0,m
16984.697,85,1,9.5,6.88237,8.5,12,33,0,m
6226.364036,80,1,9.1,7.2,8.3,8.530885,29,12,m
2725.499726,85,1,6.9,6.88237,6.9,8.530885,26.742663,647,m
64.493825,85,1,8.3,6.9,8.1,8.530885,27,10,m
7634.283782,81,1,9.5,6.88237,8.5,12,33,7,s
2725.499726,85,1,7.9,6.88237,7.9,8.530885,35,647,l
4349.911809,88,1,7.9,6.6,7.6,6,33,0,s
199.572847,85,1,9.1,7.2,8.3,8.530885,29,0,m
92.337279,85,1,9.1,7.2,8.3,8.530885,29,15,l
63.560123,85,3,7.5,6.9,7.2,9,10,6,m
143.559787,89,1,8.8,7.2,8.5,9,22,22,l
69.471894,83,3,7.5,6.88237,8.009683,9,20,10,m
249.027543,85,1,9.1,7.2,8.3,8.530885,29,12,l
1836.132762,73,1,8.5,6.88237,8.5,9,26.742663,79,m
428.856655,85,1,9.1,7.2,8.3,8.530885,29,8,m
109.747105,86,1,8.3,6.5,7.8,8.530885,10,7,l
483.483543,85,0,8.30368,4.9,8.009683,8.530885,10,0,s
4371.812079,87,1,9.1,7.2,8.3,8.530885,29,23.263212,s
3644.719835,80,1,8.6,6.88237,9.1,8.530885,33,0,l
265.711153,89,1,8.8,7.2,8.5,9,22,15,l
2085.982713,85,1,9,6.88237,8.5,7,22,29,m
9024.507806,88,1,8.3,6.88237,8.1,8.530885,15,5,s
10335.61569,81,1,8.2,6.88237,8.009683,9,47,0,s
58.902164,82,3,7,5.8,7.1,8.530885,25,14,l
261.162294,60,1,9.1,7,8.8,8.530885,30,8,m
3268.058694,80,1,8.8,7,8,8,35,0,s
105.693221,85,1,9.1,7.2,8.3,8.530885,29,11,l
247.924162,85,1,9.1,7.2,8.3,8.530885,29,11,l
40.384191,89,1,8.3,6.88237,8.009683,9,22,7,l
49.401351,85,1,7.1,6.4,6.9,8.530885,28,23,s
110.129667,89,1,8.4,6.7,8.2,8,33,9,l
164.307551,85,1,7.7,6.88237,7.7,8.530885,30,5,s
150.229293,89,1,8.3,6.88237,8.009683,9,22,15,m
11476.59404,88,1,9.5,6.88237,8.5,12,33,0,s
134.59063,85,1,9.1,7.2,8.3,8.530885,29,9,m
13169.1937,89,1,9.1,7.2,8.3,8.530885,29,11,m
76.604252,60,3,7.8,6.5,7.5,11,28,0,l
181.449264,89,1,8.3,6.88237,8.009683,9,22,20,s
323.978119,85,1,9.1,7.2,8.3,8.530885,29,5,m
3559.971426,80,3,8.6,6.88237,7.3,6,15,0,l
120.124333,85,1,9.1,7.2,8.3,8.530885,29,9,l
105.130923,85,1,9.1,7.2,8.3,8.530885,29,7,l
2411.58213,85,1,8.8,7,8,8,35,0,s
5693.627404,80,1,7,5.8,7,8.530885,15,0,s
53.317767,85,3,7.5,6.9,7.2,9,10,8,l
261.725839,60,1,9.1,7,8.8,8.530885,30,6,l
4033.120265,85,1,8,6.4,7.7,6,19,12,s
89.818883,85,1,9.1,7.2,8.3,8.530885,29,8,l
494.974069,85,1,7.5,6.4,7.3,8.530885,33,12,s
856.64279,86,1,9.1,7.2,8.3,8.530885,29,4,m
16973.91578,85,1,9.5,6.88237,8.5,12,33,127,m
73.779802,85,1,8.2,6.88237,8.2,8.530885,26.742663,73,l
30.68433,85,3,7.5,6.9,7.2,9,10,10,l
323.810763,89,1,7.5,6.88237,7.5,8,26.742663,48,l
222.703437,85,1,8,6.88237,8,5,26.742663,0,m
36.249298,60,3,7.8,6.5,7.5,11,28,7,m
181.34759,89,1,8.3,6.88237,8.009683,9,22,13,s
4920.521247,85,1,7.9,6.6,7.9,8,49,67,s
166.612857,81,1,8.1,7.1,8.1,8.530885,18,9,m
64.745034,82,1,7.5,6.4,7.3,8.530885,33,0,s
4454.936244,87,1,8.1,7.3,8.2,8.530885,10,14,s
220.176665,84,1,8,6.4,7.9,6,33,4,m
34.700512,50,3,7,6.88237,7.2,11,40,14,l
170.91987,82,1,8.1,6.8,7.9,8.530885,24,18,m
7901.051762,88,1,8.1,7.1,8.1,8.530885,18,5,s
17273.59472,85,1,8,6.6,7.3,7,46,9,s
7176.77241,88,1,9.1,7.2,8.3,8.530885,29,7,s
109.942273,85,1,8.3,6.88237,8.1,8.530885,15,67,m
189.815557,85,1,6.2,5.3,6.2,8.530885,5,0,s
151.269781,82,1,8.1,6.8,7.9,8.530885,24,21,m
4502.118568,80,3,9.2,6.88237,8.4,10,25,28,m
422.271944,85,1,6.9,6.4,6.7,10,44,0,s
205.919656,88,1,7.6,5.4,7.7,8.530885,30,7,m
111.71427,85,1,9.1,7.2,8.3,8.530885,29,10,l
14848.90353,89,1,8.3,6.5,7.8,8.530885,10,0,s
143.698963,87,3,8.6,6.88237,7.3,6,15,9,l
141.037113,89,1,8.3,6.88237,8.009683,9,22,16,l
233.696306,85,1,8.2,6.88237,8.009683,6,7,7,m
131.740775,85,1,9.1,7.2,8.3,8.530885,29,8,s
1726.224151,75,3,7.2,6.88237,8.009683,6,10,8,s
181.44331,89,1,8.3,6.88237,8.009683,9,22,21,s
205.172646,85,1,9.1,7.2,8.3,8.530885,29,14,l
9142.87106,81,1,8.8,7.2,8.5,9,22,0,s
420.658812,85,1,9.1,7.2,8.3,8.530885,29,3,l
560.02315,87,1,8.30368,6.88237,8.009683,8.530885,26.742663,12,s
333.336215,85,1,7.5,6.88237,7.5,7,30,0,s
7920.430446,88,1,9.1,7.2,8.3,8.530885,29,0,s
3510.725689,80,3,8.6,6.88237,7.3,6,15,8,m
183.246589,89,1,8.3,6.88237,8.009683,9,22,14,s
252.342728,85,1,6.9,6.7,6.9,8.530885,10,19,s
3700.805356,85,3,7,5.8,7.1,8.530885,25,32,s
15417.48147,85,1,8.5,6.88237,8.5,10,30,20,s
330.958807,60,1,8.3,7,8,8.530885,25,7,m
383.074451,85,1,8.3,6.88237,8.1,8.530885,15,8,s
15177.24768,85,1,8.5,6.88237,8.009683,10,60,0,m
11178.61985,80,1,9.5,6.88237,8.5,12,33,0,m
140.558693,86,1,7,5.8,7,8.530885,15,7,s
175.138242,60,1,7.8,6.5,7.3,8.530885,20,10,m
39.163192,82,1,8,6,8.2,8.530885,17,78,s
1688.692334,89,1,7.6,5.4,7.7,8.530885,30,0,s
17043.01338,85,1,9.5,6.88237,8.5,12,33,12,m
3364.213776,85,1,7.9,6.6,7.6,6,33,0,s
3552.930085,88,3,8.6,6.88237,7.3,6,15,18,m
17500.9368,84,1,8,6.7,7.9,8,39,0,s
313.808611,74,1,7.9,6.88237,8,8.530885,15,0,s
132.076959,89,1,8.3,6.88237,8.009683,9,22,15,m
7464.463092,88,1,8,6.7,7.9,8,39,0,s
105.251743,82,1,6.9,6.4,6.9,8.530885,10,0,s
403.548522,85,1,8.3,6.88237,8.1,8.530885,15,17,m
180.397785,81,1,8.1,7.1,8.1,8.530885,18,0,m
5877.552317,80,4,7.9,6.88237,7.9,8.530885,26.742663,29,s
207.639149,85,1,9.1,7.2,8.3,8.530885,29,7,m
136.945085,82,1,7.3,6.8,7.4,8.530885,16,15,m
395.592052,85,1,8.1,6.88237,8.3,9,45,0,s
9700.540961,88,1,9.5,6.88237,8.5,12,33,10,m
419.14108,85,1,5.5,6.1,5.5,8.530885,29,0,s
1870.320263,82,1,7.6,7,7.6,8.530885,34,0,s
119.748671,85,1,9.1,7.2,8.3,8.530885,29,7,m
1750.527156,60,1,9.1,7,8.8,8.530885,30,3,m
134.142178,85,1,7,6.88237,7,8.530885,26.742663,0,s
16476.37357,75,1,9.1,7,8.8,8.530885,30,9,s
1323.874775,87,1,8.8,7,8,8,35,23.263212,s
1721.727042,60,1,9.1,7,8.8,8.530885,30,5,l
2725.499726,84,1,6.7,6.3,6.6,8,11,647,s
262.522014,60,1,9.1,7,8.8,8.530885,30,5,l
3750.34389,85,3,8.2,6.5,8.1,9,33,0,s
61.925508,85,3,7.5,6.9,7.2,9,10,8,l
121.79453,85,1,9.1,7.2,8.3,8.530885,29,9,l
246.921786,87,3,8.1,6.88237,8.1,8.530885,25,23,s
3654.950163,80,3,8.6,6.88237,7.3,6,15,0,l
95.004185,85,1,9.1,7.2,8.3,8.530885,29,6,l
7992.836883,88,1,8.1,7.1,8.1,8.530885,18,0,s
5927.34817,60,1,9.1,7,8.8,8.530885,30,5,m
385.589872,85,1,9.1,7.2,8.3,8.530885,29,5,m
47.920537,83,3,7.5,6.88237,8.009683,9,20,7,m
114.035985,85,1,9.1,7.2,8.3,8.530885,29,11,l
400.197135,85,1,8.1,6.88237,8.3,9,45,55,s
2886.312265,85,1,7.6,7.2,7.6,8.530885,28,0,s
263.188023,85,1,9.1,7.2,8.3,8.530885,29,11,l
3593.170883,80,3,8.6,6.88237,7.3,6,15,10,m
1415.06119,60,1,7.9,6.88237,8.009683,8.530885,26.742663,0,s
4590.632986,60,1,9.1,7,8.8,8.530885,30,3,m
84.838474,85,1,7.5,6.88237,7.5,7,30,11,s
4182.753765,80,1,8.7,7.7,7.8,6,30,11,s
61.915794,85,1,6.2,5.8,6.2,8,15,0,s
1763.460748,82,1,7.5,6.4,7.3,8.530885,33,0,s
5859.652507,80,1,8.1,6.88237,8.3,9,45,0,s
95.903017,85,1,9.1,7.2,8.3,8.530885,29,5,l
7658.814473,88,1,8.5,6.88237,8.5,11,25,0,s
10565.68529,81,1,8.5,6.88237,8.5,11,25,0,m
413.960244,89,1,8,6.7,7.8,8,40,0,m
255.366803,60,1,9.1,7,8.8,8.530885,30,10,l
9448.318681,88,1,7.9,6.4,7.4,8,24,0,s
30.275254,50,1,7,6.88237,8.009683,8,21,6,s
40.479725,89,1,8.3,6.88237,8.009683,9,22,15,m
5159.606448,60,1,9.1,7,8.8,8.530885,30,11,m
125.021355,85,1,9.1,7.2,8.3,8.530885,29,8,l
247.337219,85,1,9.1,7.2,8.3,8.530885,29,10,l
363.092571,85,1,8.2,6.88237,8.009683,6,7,0,s
26.747434,89,1,8.8,7.2,8.5,9,22,24,m
586.749269,86,1,7.7,6.6,7.6,8,17,5,m
7550.808738,88,1,8.3,7.3,8.1,9,14,33,s
41.637527,60,3,7.8,6.5,7.5,11,28,12,m
264.486026,60,1,9.1,7,8.8,8.530885,30,5,l
94.270223,85,1,9.1,7.2,8.3,8.530885,29,8,s
214.328936,85,1,9.1,7.2,8.3,8.530885,29,13,l
123.075832,85,1,8.3,6.9,8.1,8.530885,27,5,m
2053.757952,60,1,9.1,7,8.8,8.530885,30,0,m
121.521428,85,1,9.1,7.2,8.3,8.530885,29,8,l
17016.64398,85,1,9.1,6.88237,8.7,11,26.742663,9,m
130.951895,85,1,9.1,7.2,8.3,8.530885,29,6,m
4967.995596,80,1,9,6.88237,8.5,7,22,13,m
119.638728,74,3,7.1,6.88237,8.009683,9,15,23,s
415.776702,85,1,9.1,7.2,8.3,8.530885,29,6,m
425.595361,85,1,9.1,7.2,8.3,8.530885,29,0,s
1552.874486,81,1,7.7,6.9,7.7,3,20,2,s
103.814403,85,1,6.9,6.7,6.9,8.530885,10,44,s
258.804931,85,1,8.4,6.88237,8.5,8.530885,15,10,m
1735.370493,60,1,9.1,7,8.8,8.530885,30,5,m
3863.554791,88,3,7.7,6,7.2,9,2,817,s
2173.043143,88,1,7.6,6.88237,8.009683,8,33,0,s
301.128692,81,1,8.1,7.1,8.1,8.530885,18,0,l
145.208575,89,1,8.3,6.88237,8.009683,9,22,7,m
13455.55201,89,1,7.9,6.6,7.6,6,33,0,s
148.507737,85,1,9.1,7.2,8.3,8.530885,29,8,l
59.445681,82,1,8.1,6.8,7.9,8.530885,24,18,m
183.046466,85,1,6.9,6.88237,8.009683,8,9,0,s
17320.13621,85,1,9.5,6.88237,8.5,12,33,8,m
544.233661,85,1,7.7,6.6,7.6,8,17,10,s
5447.858874,80,1,7.9,5.8,7.9,8.530885,33,0,s
28.505799,86,1,6.2,5.3,6.2,8.530885,5,54,s
2393.112069,75,3,7.1,6.88237,8.009683,9,15,0,s
7027.252446,88,1,9.1,7.2,8.3,8.530885,29,12,s
2495.361321,60,1,9.1,7,8.8,8.530885,30,0,m
656.6904,81,1,8.1,7.1,8.1,8.530885,18,7,m
9676.780316,73,1,8.1,6.88237,8.009683,8.530885,48,0,s
74.264848,60,1,7.8,6.5,7.3,8.530885,20,8,l
3590.338252,85,1,8.7,7.7,7.8,6,30,7,s
10257.15307,89,1,8.1,6.88237,8.009683,9,19,0,s
110.637832,85,1,9.1,7.2,8.3,8.530885,29,5,m
3483.132499,80,3,8.6,6.88237,7.3,6,15,0,m
186.720695,89,1,7.5,5.8,6.6,4,10,12,s
9456.918405,89,1,8.1,7.1,8.1,8.530885,18,0,s
1287.717703,89,1,7.1,6.88237,7.1,6,30,8,s
59.701738,60,1,7.8,6.5,7.3,8.530885,20,17,m
7272.209094,85,1,9,6.88237,9,8.530885,26.742663,0,m
3093.107451,88,3,9.2,6.88237,8.4,10,25,6,s
472.477084,85,1,9.1,7.2,8.3,8.530885,29,7,m
151.073542,85,1,7.7,6.88237,7.7,8.530885,30,0,s
3416.197512,88,1,8.2,6.88237,8.009683,8,32,0,s
52.64746,83,3,7.5,6.88237,8.009683,9,20,11,l
181.719074,89,1,8.3,6.88237,8.009683,9,22,16,m
1572.424986,81,1,7.8,6.5,7.7,8.530885,12,0,s
6.726933,85,3,7.5,6.9,7.2,9,10,9,l
101.692011,88,1,8,6.8,8.1,9,28,149,m
1743.308683,60,1,9.1,7,8.8,8.530885,30,0,m
2000.87929,89,1,7.8,6.88237,7.8,8,47,0,s
17476.95887,85,1,9.5,6.88237,8.5,12,33,14,s
1974.773567,81,1,7.4,6.88237,8.009683,8.530885,10,2,s
101.754638,86,1,9,6.88237,8.5,7,22,149,l
10520.24182,81,1,8.2,6.88237,8.009683,8,25,0,s
28.020532,50,1,7.6,6.3,7.8,10,13,6,m
58.64317,85,1,7.4,6.88237,7.4,8.530885,10,0,s
2251.140464,85,1,7.5,6.5,7.5,4,11,21,s
3036.395327,81,1,8.1,6.88237,8.009683,9,19,0,s
180.570629,85,1,8.1,6.88237,8,8.530885,30,16,s
631.592365,85,1,9.1,7.2,8.3,8.530885,29,60,s
227.185427,85,1,6.9,6.4,6.7,10,44,84,s
124.302502,85,1,9.1,7.2,8.3,8.530885,29,7,m
99.441256,85,1,9.1,7.2,8.3,8.530885,29,5,l
129.033965,85,1,9.1,7.2,8.3,8.530885,29,9,m
2515.980285,85,1,8.8,7,8,8,35,30,s
119.553321,85,1,9.1,7.2,8.3,8.530885,29,7,l
152.481989,81,1,8,7.2,7.8,7,55,2,s
181.877642,89,1,8.3,6.88237,8.009683,9,22,5,l
200.845029,85,1,7.4,6.3,7.2,10,56,7,s
177.24992,89,1,8.3,6.88237,8.3,11,40,7,l
2725.499726,80,1,8.30368,6.88237,8.009683,8.530885,26.742663,293,m
9406.73612,81,1,9.1,7.2,8.3,8.530885,29,9,s
495.300947,85,1,7.5,6.88237,8.009683,5,40,10,s
3575.354054,80,1,8.1,7.1,8.1,8.530885,18,3,s
7299.139514,81,3,8.6,6.88237,7.3,6,15,9,l
234.630254,85,1,9.1,7.2,8.3,8.530885,29,5,l
10977.2333,80,1,9.5,6.88237,8.5,12,33,31,m
105.803195,85,1,9.1,7.2,8.3,8.530885,29,11,l
488.137638,85,1,9.1,7.2,8.3,8.530885,29,3,m
282.353814,85,1,9.1,7.2,8.3,8.530885,29,10,l
13305.31111,89,1,9.1,7.2,8.3,8.530885,29,7,m
134.254594,85,1,9.1,7.2,8.3,8.530885,29,7,m
208.923835,81,1,8.1,7.1,8.1,8.530885,18,19,m
131.283543,85,1,9.1,7.2,8.3,8.530885,29,12,l
148.211984,85,1,9.1,7.2,8.3,8.530885,29,18,l
7.663152,60,1,8.30368,6.88237,8.009683,8.530885,26.742663,19,m
145.131904,85,1,5.5,6.1,5.5,8.530885,29,0,s
886.064184,85,1,8.5,7.7,8.1,9,13,0,s
323.928089,85,1,9.1,7.2,8.3,8.530885,29,7,l
57.42691,89,1,8,6.7,7.9,8,39,11,m
181.491226,89,1,8.3,6.88237,8.009683,9,22,18,s
260.475912,60,1,9.1,7,8.8,8.530885,30,10,l
8425.795278,88,1,8,7.2,7.8,7,55,0,s
101.353744,85,1,9.1,7.2,8.3,8.530885,29,10,l
29.567562,85,1,7.1,6.88237,7.1,8.530885,26.742663,7,s
1819.511692,82,1,7.2,7.2,7.2,4,65,0,s
9300.070511,89,1,7.6,7,7.6,8.530885,34,0,s
6030.508558,81,1,8.6,6.88237,9.1,8.530885,33,0,s
1829.306409,60,1,9.1,7,8.8,8.530885,30,6,m
15605.45627,89,1,8.3,6.5,7.8,8.530885,10,0,s
2515.213482,81,1,8.1,7.1,8.1,8.530885,18,0,s
5030.308952,60,1,9.1,7,8.8,8.530885,30,12,l
2623.238613,87,1,8.2,6.88237,8.009683,6,7,0,s
5236.972112,88,1,8.8,7,8,8,35,0,s
3517.732323,80,1,8.3,6.88237,8.009683,10,40,0,s
11397.81372,87,1,8.3,6.88237,8.009683,9,22,3,s
4788.482524,60,1,9.1,7,8.8,8.530885,30,5,m
5437.627354,80,1,7.6,6.4,7.3,8.530885,45,0,s
5926.008433,60,1,9.1,7,8.8,8.530885,30,5,m
790.316361,60,1,9.1,7,8.8,8.530885,30,11,m
2005.915301,88,3,9.2,6.88237,8.4,10,25,0,s
17091.3477,85,1,9.5,6.88237,8.5,12,33,19,s
239.497924,85,1,7.4,6.88237,7.4,8.530885,10,95,s
7579.066356,88,1,9.1,7.2,8.3,8.530885,29,0,m
228.76966,85,1,7.4,6.2,7.1,8.530885,10,81,s
23.238981,85,1,7.9,6.88237,7.9,8.530885,35,7,m
5980.941154,80,1,9.1,7.2,8.3,8.530885,29,0,m
331.529066,82,1,7.5,6.88237,8.009683,8.530885,10,3,s
496.120266,85,1,9.1,7.2,8.3,8.530885,29,0,m
146.878434,89,1,8.3,6.88237,8.009683,9,22,16,l
5001.147647,80,1,7.8,6.3,7.6,7,33,0,s
6240.229645,82,1,8.3,6.5,7.8,8.530885,10,0,s
270.343535,85,1,9.1,7.2,8.3,8.530885,29,9,l
3239.957617,88,3,9.2,6.88237,8.4,10,25,53,s
3086.307031,88,3,9.2,6.88237,8.4,10,25,11,s
10567.22999,80,1,8.2,6.88237,8.4,11,25,0,m
1435.40004,81,1,8.1,6.88237,8.009683,9,19,3,s
17049.15585,85,1,9.5,6.88237,8.5,12,33,460,m
112.544539,86,1,9,6.88237,8.5,7,22,12,l
6073.819716,80,1,7.9,6.3,7.9,6,48,0,s
132.361052,85,1,9.1,7.2,8.3,8.530885,29,11,l
4587.46288,60,1,9.1,7,8.8,8.530885,30,0,m
1005.765128,85,1,7.1,6.88237,8.009683,6,35,23.263212,s
223.945937,85,1,7.8,6.8,7.7,8,24,0,s
27.793773,50,1,7,6.88237,8.009683,8,21,5,s
63.28038,82,1,8.1,6.8,7.9,8.530885,24,0,s
236.233427,85,1,8.3,6.88237,8.3,8.530885,26.742663,5,m
181.589924,89,1,8.3,6.88237,8.009683,9,22,19,m
96.996642,85,1,9.1,7.2,8.3,8.530885,29,14,l
18.193031,60,1,8.6,7.2,8.4,8.530885,30,7,m
126.305734,85,1,9.1,7.2,8.3,8.530885,29,8,m
182.479529,89,1,8.3,6.88237,8.009683,9,22,0,m
252.745575,85,1,9.1,7.2,8.3,8.530885,29,6,l
11174.55149,80,1,9.5,6.88237,8.5,12,33,10,m
183.106293,89,1,8.3,6.88237,8.009683,9,22,13,s
441.263345,85,1,7.8,6.8,7.7,8,24,0,s
37.76744,74,3,7.1,6.88237,8.009683,9,15,51,l
323.560593,85,1,9.1,7.2,8.3,8.530885,29,8,m
9590.263933,81,1,9.1,7.2,8.3,8.530885,29,6,m
7912.488077,88,1,8.4,6.7,8.2,8,33,0,s
9045.29406,88,1,8.8,7.2,8.5,9,22,9,s
1831.829215,60,1,9.1,7,8.8,8.530885,30,6,m
175.955357,85,1,7.8,6.88237,7.8,8.530885,60,0,s
3222.902857,84,1,9.1,7.2,8.3,8.530885,29,0,s
9.338351,85,1,7.1,6.88237,7.1,8.530885,26.742663,27,s
394.737873,60,1,8.6,7.4,8.5,8.530885,20,6,s
30.504909,50,1,7,6.88237,8.009683,8,21,5,m
107.500164,85,1,7.5,6.88237,8.009683,5,40,0,s
3580.527615,80,3,8.6,6.88237,7.3,6,15,8,m
1641.492093,60,1,9.1,7,8.8,8.530885,30,9,l
12896.58693,82,1,8.3,6.88237,8.009683,9,22,0,s
3536.109948,87,1,8.1,6.88237,8,8.530885,30,0,s
132.637463,89,1,8.2,6.88237,8.009683,8,25,21,m
4014.047329,87,1,8.8,7,8,8,35,5,s
16886.6251,85,1,9.5,6.88237,8.5,12,33,32,m
6133.701071,80,1,7.7,6.88237,7.8,8.530885,35,11,s
47.321935,85,1,8.1,6.88237,8.3,9,45,0,m
61.96494,85,1,7.9,6.88237,7.6,8.530885,26.742663,0,m
10608.15003,80,1,9.5,6.88237,8.5,12,33,20,m
3062.853154,85,1,8.7,7.7,7.8,6,30,0,s
80.423504,80,1,7.9,6.88237,8.009683,10,26.742663,37,l
2702.137934,87,1,8.6,6.88237,9.1,8.530885,33,12,s
473.378142,85,1,8.2,6.88237,8.009683,6,7,0,s
407.011076,85,1,6.9,6.88237,8.009683,8,9,6,s
221.612839,60,1,7.7,6.1,7.2,8.530885,20,9,m
2725.499726,84,1,7.4,6.88237,7.4,9,6,647,s
10674.8311,80,1,9.5,6.88237,8.5,12,33,0,m
48.502672,83,3,7.5,6.88237,8.009683,9,20,8,s
100.624971,85,1,9.1,7.2,8.3,8.530885,29,5,l
4988.623085,80,1,9,6.88237,8.5,7,22,29,s
88.319417,85,1,6.9,6.88237,6.9,8.530885,10,5,s
66.500414,85,1,6.1,6,6.1,8.530885,10,100,s
178.032799,87,3,8.6,6.88237,7.3,6,15,28,m
40.087949,88,3,7.3,6.88237,8.009683,8.530885,26.742663,88,m
68.655007,83,3,7.5,6.88237,8.009683,9,20,11,m
283.272859,85,1,8.2,6.88237,8.009683,6,7,8,s
692.021986,85,1,7.1,6.3,7.1,8,50,69,s
638.002248,85,1,8.5,7.7,8.1,9,13,4,s
341.221711,85,1,6.9,6.88237,8.009683,8,9,100,s
403.578302,85,1,9.1,7.2,8.3,8.530885,29,7,m
86.533348,89,1,8.3,6.88237,8.009683,9,22,13,m
11286.95942,81,1,9.5,6.88237,8.5,12,33,0,s
88.01035,85,1,9.1,7.2,8.3,8.530885,29,5,m
137.56258,85,1,8.3,6.9,8.1,8.530885,27,14,s
134.617742,85,1,9.1,7.2,8.3,8.530885,29,8,m
6001.766163,88,1,9,6.88237,8.5,7,22,8,s
8807.224462,81,1,9.5,6.88237,8.5,12,33,78,l
180.178344,81,1,8.1,7.1,8.1,8.530885,18,0,m
189.006793,89,1,8.8,7.2,8.5,9,22,6,l
130.230726,85,1,9.1,7.2,8.3,8.530885,29,7,l
87.860105,85,1,8.1,6.88237,8,8.530885,30,0,s
64.334904,81,1,7.8,6.88237,8.009683,9,15,8,m
439.994334,85,1,9.1,7.2,8.3,8.530885,29,44,s
151.66207,85,1,9.1,7.2,8.3,8.530885,29,9,m
91.549082,88,1,8.2,6.88237,8.009683,9,47,6,s
2725.499726,85,1,7.9,6.88237,7.9,8.530885,35,647,m
224.474065,87,3,7.8,6.88237,7.9,11,35,30,l
22.08352,50,3,7.7,6.88237,7.8,9,20,7,m
132.646487,50,1,7.8,6.88237,8.009683,9,17,0,s
49.213426,85,1,8.1,6.88237,8.3,9,45,0,m
1721.380216,60,1,9.1,7,8.8,8.530885,30,12,l
122.097252,85,1,9.1,7.2,8.3,8.530885,29,7,m
149.964667,85,1,8.3,6.88237,8.1,8.530885,15,16,s
16.231971,85,3,7.5,6.9,7.2,9,10,6,m
81.882829,60,1,7.8,6.5,7.3,8.530885,20,12,m
288.238997,81,1,7.3,6.88237,8.009683,7,20,3,s
334.869414,85,1,7.2,6,7.2,8.530885,44,0,s
2372.219093,85,1,8.8,7,8,8,35,26,s
551.638229,85,1,8.3,6.88237,7.6,8.530885,26.742663,9,m
22.076027,89,1,8.30368,6.88237,8.009683,8.530885,26.742663,62,m
1463.60422,88,1,7.7,6.5,7.5,8.530885,14,0,s
10779.80379,88,1,9.5,6.88237,8.5,12,33,0,s
181.452263,89,1,8.3,6.88237,8.009683,9,22,15,s
96.87774,85,1,9.1,7.2,8.3,8.530885,29,4,l
238.512332,85,1,9.1,7.2,8.3,8.530885,29,8,m
323.559407,85,1,9.1,7.2,8.3,8.530885,29,8,l
1900.874168,89,1,8.2,6.88237,8.009683,8,25,14,s
136.306435,85,1,9.1,7.2,8.3,8.530885,29,7,m
2725.499726,84,1,7.1,6.4,7.4,8.530885,33,647,s
12861.31128,88,1,9.1,7.2,8.3,8.530885,29,3,s
960.860206,85,1,8.4,6.88237,8.4,8.530885,26.742663,0,m
9294.798457,88,1,8.2,6.88237,8.009683,8,25,0,s
281.217721,85,1,8.4,6.88237,8.5,8.530885,15,16,m
69.833899,85,3,7.5,6.9,7.2,9,10,10,m
301.827139,60,1,7.7,6.1,7.2,8.530885,20,10,s
16918.39749,85,1,8.5,6.88237,8.3,11,70,69,s
586.818186,60,1,7.7,6.1,7.2,8.530885,20,6,m
3560.02299,80,1,8.6,6.88237,9.1,8.530885,33,25,m
127.808673,60,1,7.8,6.5,7.3,8.530885,20,8,m
261.090319,60,1,9.1,7,8.8,8.530885,30,10,l
588.163385,87,3,9.2,6.88237,8.4,10,25,0,l
133.650402,85,1,9.1,7.2,8.3,8.530885,29,7,m
2579.737984,85,1,8.8,7,8,8,35,46,s
656.752191,85,1,9.1,7.2,8.3,8.530885,29,0,s
62.72153,83,3,7.5,6.88237,8.009683,9,20,12,m
665.672112,60,1,9.1,7,8.8,8.530885,30,8,m
122.170818,85,1,9.1,7.2,8.3,8.530885,29,10,m
115.09715,85,1,9.1,7.2,8.3,8.530885,29,11,m
1.311923,60,1,8.6,7.2,8.4,8.530885,30,14,m
1676.533299,60,1,9.1,7,8.8,8.530885,30,6,l
452.751224,81,1,7.4,6.88237,8.009683,8.530885,10,4,s
120.497277,85,1,9.1,7.2,8.3,8.530885,29,9,l
108.424362,89,1,8.8,7.2,8.5,9,22,10,m
1404.59407,60,1,7.9,6.88237,8.009683,8.530885,26.742663,9,s
307.552956,60,1,6.6,6.1,6.4,8.530885,26,20,m
191.247419,85,1,8.2,6.88237,8.009683,6,7,3,s
608.247954,89,1,8.8,7.2,8.5,9,22,9,l
13963.94243,80,1,8.8,7.2,8.5,9,22,6,s
12756.9676,87,1,8.3,6.88237,8.009683,9,22,15,s
285.482901,87,3,9.2,6.88237,8.4,10,25,4,m
11170.62486,80,1,9.5,6.88237,8.5,12,33,6,m
37.796596,86,1,7,6.3,7,7,44,0,s
142.633682,85,1,8.2,6.88237,8.009683,6,7,1,m
5012.595585,80,1,8.3,6.5,7.8,8.530885,10,0,s
100.073709,85,1,8.3,6.88237,8.1,8.530885,15,8,l
544.572835,83,1,7.3,6.88237,7.3,8.530885,500,21,m
313.52168,85,1,7.8,6.8,7.7,8,24,0,s
373.690936,85,1,8.4,6.88237,8.5,8.530885,15,16,m
334.639055,85,1,9.1,7.2,8.3,8.530885,29,6,m
17.014876,50,1,6.8,6.88237,6.8,9,33,6,s
30.360992,50,1,7,6.88237,8.009683,8,21,7,s
17645.95589,85,1,8,6.6,7.3,7,46,91,s
215.200347,85,1,6.4,6,6.4,8.530885,10,0,s
2681.226045,85,1,8.8,7,8,8,35,25,s
198.200219,85,1,7.8,6.8,7.7,8,24,0,s
189.048044,85,1,9.1,7.2,8.3,8.530885,29,9,l
186.307601,85,1,6.9,6.6,6.9,8.530885,48,12,s
1784.377902,89,1,8.8,7.2,8.5,9,22,0,s
71.877688,85,1,8.3,6.9,8.1,8.530885,27,8,m
17487.62686,85,1,8.3,6.88237,8.009683,9,22,15,s
6233.45093,85,1,7.9,5.8,7.9,8.530885,33,0,s
233.85174,85,1,7.7,6.5,7.7,8,48,0,s
53.743732,85,3,7.5,6.9,7.2,9,10,8,l
1139.065501,82,1,7.9,6.88237,8.009683,8,95,23.263212,s
254.060654,60,1,7.7,6.1,7.2,8.530885,20,8,m
3046.606216,85,1,7.6,6.88237,8.009683,7,32,0,s
14803.47425,88,1,8.1,6.88237,8.009683,8.530885,48,0,s
92.279069,85,1,9.1,7.2,8.3,8.530885,29,10,s
144.83686,50,3,7,6.88237,7.2,11,40,10,s
6500.897788,85,1,7.5,6.4,7.3,8.530885,33,0,s
181.700498,89,1,8.3,6.88237,8.009683,9,22,19,m
1963.300724,60,1,9.1,7,8.8,8.530885,30,6,l
4951.778194,88,1,8.6,6.88237,9.1,8.530885,33,9,s
3821.355337,80,3,8.6,6.88237,7.3,6,15,0,m
2310.607255,85,1,9,6.88237,8.5,7,22,11,m
245.002145,85,1,7.5,6.88237,8.009683,5,40,4,s
130.440298,85,1,9.1,7.2,8.3,8.530885,29,6,l
5678.048585,80,1,8.1,6.88237,8.3,9,45,47,s
592.972167,89,1,7.7,6.7,7.4,8,40,23.263212,s
76.880361,85,1,7.5,6.88237,7.5,7,30,49,s
1775.053739,60,1,9.1,7,8.8,8.530885,30,7,l
119.184732,89,1,8.1,6.88237,7.5,9,38,41,m
60.158441,85,1,6.2,5.8,6.2,8,15,7,s
455.184158,85,1,9.1,7.2,8.3,8.530885,29,5,m
2107.938446,60,1,9.1,7,8.8,8.530885,30,5,m
260.370954,60,1,9.1,7,8.8,8.530885,30,7,l
30.459546,50,1,7,6.88237,8.009683,8,21,6,s
46.557208,89,1,8.8,7.2,8.5,9,22,11,l
45.785115,89,1,8.8,7.2,8.5,9,22,9,l
287.416053,85,1,8.1,6.88237,8.3,9,45,179,m
45.564891,86,1,6.2,5.3,6.2,8.530885,5,9,m
279.406488,85,1,8.3,6.9,8.1,8.530885,27,978,s
96.474529,85,1,9.1,7.2,8.3,8.530885,29,9,m
140.800847,85,1,8.3,6.88237,8.1,8.530885,15,58,m
4610.485513,60,1,8.6,7.4,8.5,8.530885,20,2,s
46.747895,89,1,8.8,7.2,8.5,9,22,21,l
486.868845,85,1,9.1,7.2,8.3,8.530885,29,7,m
145.416769,81,3,7.7,6.88237,7.8,9,35,10,m
11154.46424,80,1,9.5,6.88237,8.5,12,33,4,m
10714.01927,80,1,9.5,6.88237,8.5,12,33,0,m
1453.254801,81,1,7.4,6.88237,8.009683,8.530885,10,0,s
15376.45743,81,1,9.5,6.88237,8.5,12,33,18,s
3641.33943,85,3,8.2,6.5,8.1,9,33,0,s
6226.102931,80,1,9.1,7.2,8.3,8.530885,29,14,m
17070.89162,85,1,9.5,6.88237,8.5,12,33,18,s
15.993832,85,3,7.5,6.9,7.2,9,10,5,m
1974.511744,60,1,9.1,7,8.8,8.530885,30,7,l
60.045345,85,1,8.3,6.9,8.1,8.530885,27,20,m
688.015008,89,1,6.9,6.2,7,8.530885,10,0,s
92.999173,85,1,9.1,7.2,8.3,8.530885,29,8,m
25.090237,88,1,7.7,6.5,7.5,8.530885,14,24,m
9477.37642,81,1,8.3,6.88237,8.009683,9,22,5,s
2795.357516,81,1,7.4,6.3,7.4,6,73,0,s
122.0799,85,1,7.1,6.88237,8.009683,8.530885,60,0,s
3761.45453,80,3,8.6,6.88237,7.3,6,15,348,l
9524.52616,88,1,7.9,6.4,7.4,8,24,0,s
323.558444,85,1,9.1,7.2,8.3,8.530885,29,7,l
4253.269379,88,3,8.6,6.88237,7.3,6,15,0,s
57.39598,82,1,7.6,6.5,7.8,8.530885,13,7,s
318.73336,85,1,9.1,7.2,8.3,8.530885,29,5,m
8185.328301,87,1,8.1,7.1,8.1,8.530885,18,9,s
4219.41078,85,1,8.6,6.88237,9.1,8.530885,33,8,s
5035.464614,84,1,8.8,7,8,8,35,6,s
108.690025,60,3,7.8,6.5,7.5,11,28,24,l
131.466023,89,1,8.2,6.88237,8.009683,8,25,10,m
29.094042,50,1,7.6,6.3,7.8,10,13,6,m
12241.02437,87,1,8.8,7.2,8.5,9,22,14,s
730.641468,85,1,7.8,6.8,7.7,8,24,0,s
289.146732,50,1,6.8,6.5,6.9,10,12,0,m
2886.275705,88,3,8.6,6.88237,7.3,6,15,5,s
386.982572,85,1,6.6,6.88237,8.009683,8.530885,80,0,s
3557.886067,80,1,8.6,6.88237,9.1,8.530885,33,3,m
13.636455,50,1,7.3,6.88237,7.1,10,60,6,m
97.565915,85,1,9.1,7.2,8.3,8.530885,29,6,m
17427.04492,85,1,9.5,6.88237,8.5,12,33,0,s
4799.631399,60,1,9.1,7,8.8,8.530885,30,17,m
264.801368,85,1,6.4,6.88237,8.009683,8.530885,12,4,s
116.01788,88,1,7.6,5.4,7.7,8.530885,30,8,l
47.364089,60,1,7.8,6.5,7.3,8.530885,20,16,l
79.202279,85,1,9.1,7.2,8.3,8.530885,29,19,l
179.84176,85,1,9.1,7.2,8.3,8.530885,29,8,m
61.977157,82,1,8.1,6.8,7.9,8.530885,24,0,m
146.398127,89,1,8.8,7.2,8.5,9,22,21,l
1070.725107,85,1,8.2,6.88237,8.009683,6,7,9,s
4147.473863,85,1,7.6,6.5,7.8,8.530885,13,21,s
206.428568,81,1,8.1,7.1,8.1,8.530885,18,20,m
2545.721511,85,1,9,6.88237,8.5,7,22,7,s
6232.755087,80,1,9.1,7.2,8.3,8.530885,29,13,m
103.392672,85,1,9.1,7.2,8.3,8.530885,29,8,l
13310.98581,89,1,9.1,7.2,8.3,8.530885,29,0,m
4641.950187,88,1,7.5,6.88237,8.009683,6,57,20,s
457.453693,87,3,9.2,6.88237,8.4,10,25,11,l
17593.43632,85,1,9.5,6.88237,8.5,12,33,0,s
285.676642,85,1,7,6.88237,7,8.530885,34,18,s
187.055819,85,1,8.1,6.88237,8,8.530885,30,69,s
6313.356866,80,1,9.1,7.2,8.3,8.530885,29,6,m
120.555135,88,1,7.3,6.88237,8.009683,8.530885,28,5,m
234.928128,89,1,8.3,6.88237,8.009683,9,22,11,m
5469.8146,80,1,7.9,6.4,7.4,8,24,5,s
3101.896552,85,1,9,6.88237,8.5,7,22,0,s
62.727812,81,1,7.8,6.88237,8.009683,9,15,8,m
2332.219355,81,1,7.6,7,7.6,8.530885,34,2,s
11749.56371,80,1,8,6.7,7.9,8,39,0,s
7050.249751,88,1,8.1,6.88237,7.5,9,38,0,s
134.902595,85,1,9.1,7.2,8.3,8.530885,29,7,l
101.373368,85,1,8.1,6.88237,8.3,9,45,13,m
1902.866797,81,1,7.7,6.88237,8.009683,7,10,0,s
1824.779141,60,1,9.1,7,8.8,8.530885,30,8,m
2109.499972,60,1,9.1,7,8.8,8.530885,30,0,m
5281.35823,80,1,9,6.88237,8.5,7,22,0,s
125.05337,85,1,9.1,7.2,8.3,8.530885,29,8,l
6248.988251,81,1,8.3,6.88237,8.009683,9,22,1,s
7372.81992,81,3,9.2,6.88237,8.4,10,25,0,s
211.842248,81,1,8.1,7.1,8.1,8.530885,18,16,m
118.561555,88,1,7.3,6.88237,8.009683,8.530885,28,4,l
647.859911,60,1,9.1,7,8.8,8.530885,30,6,l
52.677188,85,1,7,6.88237,7,8.530885,26.742663,9,s
14894.04604,89,1,7.8,6.2,7.2,8.530885,33,14,s
20.141536,83,1,7.9,6.3,7.6,6,24,11,m
822.795629,81,1,7.8,6.88237,8.009683,8.530885,25,0,s
838.799594,85,1,7.7,6.6,7.6,8,17,730,s
360.719537,85,1,8.3,6.9,8.1,8.530885,27,0,s
2437.732743,75,3,7.2,6.88237,8.009683,6,10,12,s
4120.527845,88,3,8.6,6.88237,7.3,6,15,0,s
406.094511,82,1,7.1,6.88237,8.009683,8.530885,36,0,s
9037.205305,81,1,8.8,7.2,8.5,9,22,60,s
590.179927,82,1,7.7,6.88237,8.009683,7,10,0,s
130.58326,85,1,9.1,7.2,8.3,8.530885,29,6,s
593.870528,85,1,7.5,6.88237,8.009683,5,40,42,s
94.874992,89,1,8.2,6.88237,8.009683,8,25,10,m
2626.412961,81,1,8.1,7.1,8.1,8.530885,18,0,s
14.141967,84,1,7.1,6.1,7.1,8.530885,32,8,m
6888.380476,85,1,7.7,6.5,7.5,8.530885,14,7,s
347.995622,89,3,8.2,6.88237,8.6,9,60,0,m
4931.788308,60,1,9.1,7,8.8,8.530885,30,8,s
183.218226,85,3,7.6,6.88237,7.3,8.530885,10,0,s
15742.39221,86,1,9.5,6.88237,8.5,12,33,12,s
139.884009,85,1,8.3,6.9,8.1,8.530885,27,3,s
11724.27505,87,1,8,6.6,7.3,7,46,0,s
477.947303,85,1,9.1,7.2,8.3,8.530885,29,0,m
605.355957,82,1,7.9,6.4,7.4,8,24,23.263212,s
177.256092,85,1,7.4,6.6,7.4,10,66,6,s
22.634014,85,3,7.5,6.9,7.2,9,10,5,m
775.01802,86,1,7,5.8,7,8.530885,15,0,s
201.435463,81,1,8.1,7.1,8.1,8.530885,18,18,l
20.445418,85,3,7.5,6.9,7.2,9,10,5,s
34.466001,86,1,8.3,7.3,8.1,9,14,27,l
17330.74611,85,1,9.5,6.88237,8.5,12,33,0,m
263.994354,50,3,7,6.88237,7.2,11,40,13,s
3805.412492,80,3,8.6,6.88237,7.3,6,15,0,l
364.624345,75,3,7.2,6.88237,8.009683,6,10,7,m
30.675625,85,3,7.5,6.9,7.2,9,10,4,s
51.703274,60,1,7.8,6.5,7.3,8.530885,20,11,l
75.298606,60,1,9.1,7,8.8,8.530885,30,9,m
950.26281,86,1,9,6.88237,8.5,7,22,77,m
119.385349,89,1,7.8,6.88237,7.8,8.530885,26.742663,48,l
181.27678,89,1,8.3,6.88237,8.009683,9,22,14,l
7934.11069,88,1,9.1,7.2,8.3,8.530885,29,26,s
729.837926,85,1,7,6.3,7,7,44,69,s
82.415963,85,1,7.5,6.88237,8.009683,5,40,0,m
318.502796,85,1,9.1,7.2,8.3,8.530885,29,10,m
2814.558656,60,1,7.8,6.88237,8.009683,5,24,23.263212,s
643.841298,82,1,7.8,6.88237,8.009683,8,40,23.263212,s
224.397921,85,1,9.1,7.2,8.3,8.530885,29,15,l
127.51145,85,1,9.1,7.2,8.3,8.530885,29,9,l
25.362316,82,1,8.1,6.8,7.9,8.530885,24,5,m
8666.019925,88,1,7.2,7.2,7.2,4,65,33,s
182.230768,89,1,8.3,6.88237,8.009683,9,22,13,l
8736.207804,88,1,8.2,6.88237,8.009683,8,25,0,s
46.437663,60,1,7.8,6.5,7.3,8.530885,20,0,l
909.048051,81,1,7.1,6.88237,8.009683,2,21,5,s
105.661104,85,1,9.1,7.2,8.3,8.530885,29,9,l
3830.548676,85,3,8.2,6.5,8.1,9,33,52,s
97.9624,85,1,9.1,7.2,8.3,8.530885,29,6,l
5513.937836,88,1,8.1,7.3,8.2,8.530885,10,0,s
113.509504,85,3,7.5,6.9,7.2,9,10,0,s
78.574211,84,1,8.7,6.88237,8.7,9,33,5,l
123.479857,89,1,7.5,5.8,6.6,4,10,11,m
179.090133,89,1,8.3,6.88237,8.009683,9,22,14,m
14373.63786,85,1,8.1,6.4,7.7,9,23,0,s
45.181342,82,1,8.1,6.8,7.9,8.530885,24,9,s
224.271525,85,1,8.3,6.88237,7.6,8.530885,26.742663,0,l
118.667218,89,1,8.3,6.88237,8.3,11,40,11,l
10734.51128,80,1,8.3,6.88237,8.009683,9,22,0,s
458.521714,80,1,6.9,6.88237,8.009683,8.530885,60,47,s
119.773567,84,1,6.8,6.88237,6.8,8,26.742663,0,s
205.486028,85,1,9.1,7.2,8.3,8.530885,29,8,l
4092.431746,81,1,8.1,6.8,7.9,8.530885,24,0,s
105.623899,85,1,9.1,7.2,8.3,8.530885,29,6,s
59.64771,60,1,7.8,6.5,7.3,8.530885,20,27,m
144.50902,84,1,8,6.4,7.9,6,33,73,m
3560.834906,85,1,8,6.4,7.7,6,19,0,s
3813.469305,80,1,7.9,6.88237,8.009683,4,14,0,s
4980.454157,82,1,9.1,7.2,8.3,8.530885,29,0,s
187.75867,81,1,8.1,7.1,8.1,8.530885,18,37,l
98.356597,89,1,8.8,7.2,8.5,9,22,18,l
44.716763,82,1,8.1,6.8,7.9,8.530885,24,18,m
39.032845,86,1,7.2,6.3,7.2,8,27,7,s
11099.10664,80,1,8.5,6.88237,8.5,10,26.742663,9,m
73.326144,82,1,7.6,6.5,7.8,8.530885,13,9,m
78.910367,60,1,7.8,6.5,7.3,8.530885,20,5,s
71.877688,85,1,8.3,6.9,8.1,8.530885,27,8,m
115.578101,85,1,9.1,7.2,8.3,8.530885,29,6,l
290.785023,60,1,7.7,6.1,7.2,8.530885,20,7,l
118.45495,89,1,8.4,6.7,8.2,8,33,98,m
136.04074,85,1,9.1,7.2,8.3,8.530885,29,10,l
9521.249259,88,1,8.8,7.2,8.5,9,22,10,s
60.725511,85,1,8.1,6.88237,8.3,9,45,27,m
9248.404885,81,1,9.1,7,8.8,8.530885,30,52,s
9715.069125,81,1,8.2,6.88237,8.009683,8,25,0,s
501.244292,85,1,9.1,7.2,8.3,8.530885,29,0,s
244.737352,60,1,7.7,6.1,7.2,8.530885,20,0,m
17072.05134,85,1,9.5,6.88237,8.5,12,33,7,s
10734.60489,88,1,8.8,7.2,8.5,9,22,0,s
9705.643248,81,1,9.1,7.2,8.3,8.530885,29,10,m
1759.847054,60,1,9.1,7,8.8,8.530885,30,4,m
105.609376,85,1,9.1,7.2,8.3,8.530885,29,9,l
998.262077,85,1,9.1,7.2,8.3,8.530885,29,5,s
349.432882,88,1,8.6,6.88237,8.3,9,26.742663,32,m
271.552007,85,1,9.1,7.2,8.3,8.530885,29,4,l
609.735605,85,1,7.5,6.88237,8.009683,5,40,9,s
16964.13329,85,1,9.5,6.88237,8.5,12,33,0,m
96.599964,85,1,9.1,7.2,8.3,8.530885,29,6,l
451.630024,85,1,9.1,7.2,8.3,8.530885,29,6,m
36.742919,60,1,7.8,6.5,7.3,8.530885,20,10,m
181.467664,89,1,8.3,6.88237,8.009683,9,22,11,s
178.720896,87,1,7.6,6.88237,8.009683,8,33,0,s
12073.94355,87,1,8.2,6.88237,8.009683,8,25,0,s
12262.09571,87,1,8.2,6.88237,8.009683,8,25,0,s
5161.9886,87,1,7.5,6.5,7.5,4,11,8,s
175.480648,81,1,7.5,6.88237,8.009683,9,26.742663,12,m
6247.369927,60,1,9.1,7,8.8,8.530885,30,11,m
256.775884,85,1,8.4,6.88237,8.5,8.530885,15,53,m
144.987536,89,1,8.2,6.88237,8.009683,8,25,12,m
238.851063,84,1,8,6.4,7.9,6,33,6,m
10.383087,89,1,8.8,7.2,8.5,9,22,10,m
3183.621928,81,1,8.1,6.88237,8.3,9,45,18,s
304.16836,85,1,9.1,7.2,8.3,8.530885,29,8,l
415.345085,85,1,9.1,7.2,8.3,8.530885,29,0,s
4473.137062,60,1,9.1,7,8.8,8.530885,30,0,s
7381.941558,73,1,8.6,8,8.6,11,33,5,s
124.971249,85,1,9.1,7.2,8.3,8.530885,29,7,m
13123.32928,81,1,9.5,6.88237,8.5,12,33,0,s
17049.52559,85,1,9.5,6.88237,8.5,12,33,0,s
89.192595,85,1,9.1,7.2,8.3,8.530885,29,6,m
103.523241,85,1,8.2,6.88237,8.2,8.530885,26.742663,12,l
286.980327,87,1,8.2,6.88237,8.009683,8,32,0,s
2107.846792,60,1,9.1,7,8.8,8.530885,30,0,m
10166.56434,82,1,7.7,6.5,7.5,8.530885,14,0,s
299.996326,85,1,8.4,6.88237,8.5,8.530885,15,0,m
262.456565,60,1,9.1,7,8.8,8.530885,30,9,l
466.25998,86,1,7.7,6.6,7.6,8,17,0,m
109.667336,85,1,8.3,6.88237,8.1,8.530885,15,6,m
127.785473,60,1,7.8,6.5,7.3,8.530885,20,7,m
17085.31722,85,1,9.5,6.88237,8.5,12,33,12,m
4971.141563,60,1,7.8,6.5,7.3,8.530885,20,2,s
260.402434,60,1,9.1,7,8.8,8.530885,30,9,m
3481.400219,80,3,8.6,6.88237,7.3,6,15,0,m
261.742139,60,1,9.1,7,8.8,8.530885,30,11,l
15991.91808,89,1,8.3,6.5,7.8,8.530885,10,0,s
428.590387,85,1,9.1,7.2,8.3,8.530885,29,7,m
1234.374152,88,1,7.3,6.88237,8.009683,8.530885,28,23.263212,s
181.549267,89,1,8.3,6.88237,8.009683,9,22,20,m
5857.372366,60,1,9.1,7,8.8,8.530885,30,0,m
7.761271,89,1,8.30368,6.88237,8.009683,8.530885,26.742663,0,m
283.097995,85,1,9.1,7.2,8.3,8.530885,29,11,l
16147.8609,85,1,8.4,6.7,8.2,8,33,0,s
192.807054,81,1,8.1,7.1,8.1,8.530885,18,3,m
16838.17666,74,1,9.1,7,8.8,8.530885,30,94,s
6277.42471,80,1,9.1,7.2,8.3,8.530885,29,10,m
269.982388,60,1,7.8,5.7,7.2,8.530885,18,76,m
547.363514,60,1,9.1,7,8.8,8.530885,30,6,m
221.243927,60,1,7.7,6.1,7.2,8.530885,20,6,m
166.752019,85,1,8.2,6.88237,8.009683,6,7,7,m
48.951666,86,1,7.1,6.3,7.1,9,9,11,m
211.642567,74,1,8.30368,6.88237,8.009683,10,10,0,l
309.763793,87,1,7.8,6.8,7.6,5,15,14,s
147.638999,89,1,8.3,6.88237,8.009683,9,22,18,m
260.525453,60,1,9.1,7,8.8,8.530885,30,12,m
1080.40511,85,1,5.7,6.88237,8.009683,8.530885,10,6,s
5683.283183,80,1,7.8,6.6,8.1,8.530885,29,9,s
2.199873,84,1,6.7,6.3,6.6,8,11,0,s
4051.099021,89,1,9.5,6.88237,8.5,12,33,0,s
2151.229232,85,1,9,6.88237,8.5,7,22,62,m
498.047632,85,1,9.1,7.2,8.3,8.530885,29,7,l
43.836129,85,1,6.7,6,6.5,9,2,0,s
93.006951,89,1,8,6.7,7.9,8,39,8,m
426.701742,50,1,8.5,6.88237,8.009683,11,26.742663,7,m
4356.750801,80,1,8.1,7.1,8.1,8.530885,18,0,s
93.710302,85,1,9.1,7.2,8.3,8.530885,29,6,s
881.637965,85,1,7.7,6.6,7.6,8,17,0,s
3572.502506,80,1,8.6,6.88237,9.1,8.530885,33,8,m
101.188913,87,3,8.6,6.88237,7.3,6,15,10,l
130.216531,60,1,8.6,7.2,8.4,8.530885,30,0,m
4597.146843,80,3,9.2,6.88237,8.4,10,25,30,s
158.227543,85,1,6.8,6.88237,8.009683,8.530885,40,18,s
181.43447,89,1,8.3,6.88237,8.009683,9,22,14,s
188.253709,89,1,8.3,6.88237,8.3,11,40,29,m
93.022309,80,1,7.9,6.88237,8.009683,10,26.742663,0,m
196.823336,85,1,9.1,7.2,8.3,8.530885,29,8,l
101.350298,85,1,9.1,7.2,8.3,8.530885,29,11,m
9542.214657,87,1,9.1,7,8.8,8.530885,30,8,s
43.297005,87,1,8.7,7.7,7.8,6,30,98,m
6048.80013,80,1,7.7,6.5,7.7,8,48,11,s
164.157504,50,3,7,6.88237,7.2,11,40,4,s
3872.718002,88,1,8.2,8.2,8.3,6,25,0,s
975.538047,60,1,9.1,7,8.8,8.530885,30,43,m
149.990379,85,1,8.2,6.88237,8.009683,6,7,15,m
104.843243,85,1,9.1,7.2,8.3,8.530885,29,7,l
113.555141,86,1,9,6.88237,8.5,7,22,0,l
96.732863,85,1,9.1,7.2,8.3,8.530885,29,6,l
153.111008,85,1,8.3,6.88237,8.1,8.530885,15,41,l
302.715822,50,1,7.8,6.88237,8.009683,9,17,3,s
246.655823,85,1,9.1,7.2,8.3,8.530885,29,6,l
127.359208,85,1,9.1,7.2,8.3,8.530885,29,8,l
22.901588,85,3,7.5,6.9,7.2,9,10,5,s
147.88034,89,1,8.8,7.2,8.5,9,22,21,l
5510.15751,74,1,8.5,6.88237,8.009683,11,26.742663,13,m
5038.582224,60,1,9.1,7,8.8,8.530885,30,24,l
652.230464,85,1,7.8,6.8,7.7,8,24,18,s
39.402139,50,3,7.7,6.88237,7.8,9,20,6,m
1788.237102,60,1,9.1,7,8.8,8.530885,30,8,m
181.431514,89,1,8.3,6.88237,8.009683,9,22,9,m
94.092808,85,1,9.1,7.2,8.3,8.530885,29,15,l
67.33708,60,3,7.8,6.5,7.5,11,28,0,l
71.905343,85,1,8.1,6.88237,8.3,9,45,0,m
90.855995,85,1,9.1,7.2,8.3,8.530885,29,4,l
1169.164687,85,1,9.1,7.2,8.3,8.530885,29,91,s
3944.652139,80,1,7.9,6.88237,8.009683,4,14,0,s
3873.364589,88,1,8.2,6.88237,8.009683,8,32,0,s
260.487572,85,1,8.4,6.88237,8.5,8.530885,15,11,l
1809.033383,60,1,9.1,7,8.8,8.530885,30,7,l
390.698539,86,1,7.6,6.3,7.4,8.530885,24,101,s
107.648359,85,1,7.5,6.88237,8.009683,5,40,93,s
133.133937,85,1,9.1,7.2,8.3,8.530885,29,6,m
4531.195299,83,1,9.1,7.2,8.3,8.530885,29,0,s
3558.380655,80,1,8.6,6.88237,9.1,8.530885,33,9,m
187.948831,81,1,8.1,7.1,8.1,8.530885,18,29,l
13238.03342,89,1,9.1,7.2,8.3,8.530885,29,3,m
4529.862277,88,1,8.3,6.88237,8.009683,9,22,23.263212,s
122.281102,85,1,9.1,7.2,8.3,8.530885,29,6,m
39.091903,82,1,7.1,6.4,7.1,8.530885,25,20,s
168.172866,81,1,8.1,7.1,8.1,8.530885,18,6,m
20.34886,85,1,6.6,6,6.6,8.530885,10,34,s
5076.471986,87,1,9.1,7.2,8.3,8.530885,29,0,s
3619.511166,80,3,8.6,6.88237,7.3,6,15,0,l
3658.006667,80,3,8.6,6.88237,7.3,6,15,7,l
174.446416,85,1,7.5,6.88237,7.5,9,10,48,m
268.203971,50,3,7,6.88237,7.2,11,40,28,m
35.484534,60,1,7.8,6.5,7.3,8.530885,20,10,l
22.901131,85,3,7.5,6.9,7.2,9,10,4,s
5513.756547,80,1,8.3,6.88237,8.009683,10,40,0,s
131.155054,89,1,8.2,6.88237,7.3,8.530885,35,0,s
260.571864,60,1,9.1,7,8.8,8.530885,30,7,l
485.452593,85,1,8.2,6.88237,8.009683,6,7,0,m
2725.499726,85,1,7.4,6.88237,7.4,8.530885,26.742663,647,l
6464.921812,80,1,8.1,6.88237,8,8.530885,30,0,s
126.444086,85,1,9.1,7.2,8.3,8.530885,29,9,l
741.20331,85,1,9.1,7.2,8.3,8.530885,29,0,s
10677.77022,80,1,9.5,6.88237,8.5,12,33,0,m
6529.668072,88,1,8.8,7,8,8,35,0,s
98.533716,86,1,8.3,6.5,7.8,8.530885,10,6,l
241.101122,85,1,9.1,7.2,8.3,8.530885,29,13,l
15727.76868,89,1,8.8,7,8,8,35,0,s
260.838738,60,1,9.1,7,8.8,8.530885,30,15,m
2738.942154,85,1,7.6,6.4,7.6,6,50,0,s
5219.813216,60,1,8.6,7.2,8.4,8.530885,30,2,s
381.598904,85,1,7.4,6.88237,7.4,8.530885,10,0,s
92.684639,89,1,8,6.7,7.9,8,39,12,s
6041.746869,85,1,7.9,5.8,7.9,8.530885,33,67,s
227.015531,85,1,7.1,6.88237,8.009683,8.530885,60,95,s
181.875467,89,1,8.3,6.88237,8.009683,9,22,13,m
3827.995696,80,3,8.6,6.88237,7.3,6,15,0,l
5282.419048,85,3,9.2,6.88237,8.4,10,25,10,s
9221.298509,88,1,8,6.5,8,8.530885,33,0,s
2579.219293,60,1,9.1,7,8.8,8.530885,30,4,m
1157.220932,85,1,7.7,6.5,7.7,8,48,0,s
136.999991,85,1,7.7,6.6,7.6,8,17,0,m
14469.35993,87,1,8.3,6.88237,8.009683,9,22,23.263212,s
76.247423,81,3,7.1,6.88237,7.2,4,12,0,m
3625.357446,80,3,8.6,6.88237,7.3,6,15,0,l
22.894969,50,1,7,6.88237,8.009683,8,21,3,s
121.425984,85,1,9.1,7.2,8.3,8.530885,29,12,m
2005.734097,89,1,8.5,6.88237,8.5,11,25,32,m
741.58798,89,1,8.1,6.88237,7.5,9,38,7,s
81.513029,85,1,9.1,7.2,8.3,8.530885,29,5,l
218.005971,88,1,7.6,5.4,7.7,8.530885,30,11,s
353.945773,85,1,7.8,6.4,7.5,9,27,0,s
79.998273,87,1,7.1,6,7.1,6,43,8,s
846.531171,82,1,7.9,6.4,7.4,8,24,0,s
90.066676,85,1,9.1,7.2,8.3,8.530885,29,7,m
33.398019,85,1,7.5,6.88237,8.009683,5,40,0,m
2108.289323,60,1,9.1,7,8.8,8.530885,30,0,m
10605.47844,88,1,9.1,7.2,8.3,8.530885,29,0,m
66.471556,85,1,8.3,6.88237,8.1,8.530885,15,8,m
709.183816,86,1,9,6.88237,8.5,7,22,96,l
96.998706,85,1,9.1,7.2,8.3,8.530885,29,8,s
146.607623,85,1,9.1,7.2,8.3,8.530885,29,13,l
633.474214,85,1,9.1,7.2,8.3,8.530885,29,5,s
10479.9826,73,1,9.1,7,8.8,8.530885,30,0,s
106.416113,85,1,9.1,7.2,8.3,8.530885,29,6,l
481.508037,85,1,9.1,7.2,8.3,8.530885,29,3,m
210.651288,85,1,9.1,7.2,8.3,8.530885,29,18,l
1641.575173,60,1,9.1,7,8.8,8.530885,30,10,l
61.452209,85,1,8.1,6.88237,8.3,9,45,6,m
278.597841,85,1,7.5,6.3,7.5,6,33,8,s
50.750386,60,1,7.8,6.5,7.3,8.530885,20,6,l
17761.71272,85,1,9.5,6.88237,8.5,12,33,16,s
5309.789146,80,1,9,6.88237,8.5,7,22,0,m
140.985855,89,1,8.3,6.88237,8.009683,9,22,17,l
179.429675,89,1,8.3,6.88237,8.009683,9,22,0,m
365.34869,85,1,5.7,6.88237,8.009683,8.530885,10,81,s
384.823794,85,1,8.1,6.88237,8.3,9,45,10,m
2401.475973,85,1,7.5,6.5,7.5,4,11,8,s
9059.777643,88,1,8.1,6.88237,8,8.530885,30,7,s
3597.904939,85,1,7.4,6.3,7.4,6,73,26,s
76.549304,81,1,7.1,6.88237,8.009683,8.530885,43,0,s
410.781828,85,1,9.1,7.2,8.3,8.530885,29,12,m
3139.040692,85,1,8.8,7,8,8,35,10,s
60.662592,82,1,8.1,6.8,7.9,8.530885,24,25,l
15.669693,84,1,7.1,6.1,7.1,8.530885,32,13,m
56.624688,85,1,8.3,6.88237,8.1,8.530885,15,62,m
141.118515,82,1,7.3,6.8,7.4,8.530885,16,15,m
10819.65207,80,1,9.5,6.88237,8.5,12,33,0,m
2725.499726,85,1,8.3,6.88237,8.1,8.530885,15,647,m
16948.64309,85,1,9.5,6.88237,8.5,12,33,32,m
124.7953,85,1,9.1,7.2,8.3,8.530885,29,7,l
227.19956,60,1,7.7,6.1,7.2,8.530885,20,12,l
169.867628,50,3,7.7,6.88237,7.8,9,20,7,s
227.347547,60,1,7.7,6.1,7.2,8.530885,20,7,l
1035.671858,84,1,7.7,6.6,7.6,8,17,0,m
1478.824175,81,1,7.5,6.4,7.3,8.530885,33,0,s
26.118389,74,1,7.6,6.3,7.4,10,10,9,m
40.192146,89,1,8.3,6.88237,8.009683,9,22,5,m
5277.161272,80,1,8.3,6.5,7.8,8.530885,10,0,s
6541.172489,83,1,8.8,7,8,8,35,0,s
9.782398,85,4,7.1,6.88237,7.1,8.530885,26.742663,0,m
93.978976,85,1,9.1,7.2,8.3,8.530885,29,11,l
4344.361516,81,1,8.1,7.3,8.2,8.530885,10,0,s
11613.13427,87,1,8.3,6.88237,8.009683,9,22,0,s
5421.876687,60,1,9.1,7,8.8,8.530885,30,8,m
272.05349,85,1,7.5,6.88237,7.5,7,30,9,s
6.444236,85,3,7.5,6.9,7.2,9,10,10,l
3848.790936,80,3,8.6,6.88237,7.3,6,15,0,m
129.445588,83,1,7.6,6.88237,8.009683,5,105,0,s
77.763251,89,1,8.8,7.2,8.5,9,22,16,l
3644.542788,85,1,7.6,6.5,7.8,8.530885,13,24,s
16991.95615,85,1,8,6.6,7.3,7,46,0,s
162.844715,85,1,7,6.88237,7,8.530885,34,124,s
62.862946,85,3,7.5,6.9,7.2,9,10,7,l
4980.518587,81,1,8.6,6.88237,9.1,8.530885,33,0,s
22.603834,85,3,7.5,6.9,7.2,9,10,7,m
4891.427506,85,1,7.9,6.6,7.9,8,49,0,s
57.83221,85,3,7.5,6.9,7.2,9,10,12,l
130.468727,85,1,9.1,7.2,8.3,8.530885,29,6,l
130.574284,85,1,8.3,6.88237,8.1,8.530885,15,11,m
2313.420719,88,1,8.1,6.88237,7.5,9,38,3,s
4998.877445,80,1,7.8,6.88237,8.009683,8.530885,25,47,s
98.954441,89,1,8.8,7.2,8.5,9,22,15,l
9.302431,85,3,7.5,6.9,7.2,9,10,7,m
68.205308,83,3,7.5,6.88237,8.009683,9,20,11,m
11782.52431,80,1,9.1,7,8.8,8.530885,30,5,s
151.791641,85,1,8.3,7.3,8.1,9,14,0,m
518.284176,82,1,7.1,6.88237,8.009683,8.530885,22,0,s
9393.701843,81,1,8.3,6.88237,8.009683,9,22,0,s
3907.537938,85,1,8,6.4,7.7,6,19,0,s
38.516998,60,1,7.8,6.5,7.3,8.530885,20,0,l
134.707865,81,1,8,6.88237,8,8.530885,33,9,m
2079.770701,85,1,9,6.88237,8.5,7,22,0,s
5291.48808,80,1,9,6.88237,8.5,7,22,7,s
182.49653,89,1,8.3,6.88237,8.009683,9,22,10,m
27.192044,84,1,7,6.88237,6,8.530885,26.742663,13,m
2522.24675,60,1,9.1,7,8.8,8.530885,30,7,m
101.285732,85,1,9.1,7.2,8.3,8.530885,29,10,l
3802.810716,81,1,8.2,6.88237,8.009683,6,7,0,s
6992.178774,88,1,9.1,7.2,8.3,8.530885,29,23.263212,s
182.122129,84,1,8,6.4,7.9,6,33,7,l
1598.685157,60,1,7.8,5.7,7.2,8.530885,18,0,s
179.013722,89,1,8.3,6.88237,8.009683,9,22,11,m
273.7649,85,1,7.7,6.5,7.7,8,48,4,s
72.727869,60,1,7.8,6.5,7.3,8.530885,20,16,m
983.382061,85,1,9.1,7.2,8.3,8.530885,29,8,m
15546.39259,89,1,8.8,7,8,8,35,14,s
5360.933797,80,1,7.9,6.88237,7.2,8.530885,28,0,s
206.791472,85,1,7.7,6.88237,7.7,8.530885,26.742663,27,m
11347.08702,89,1,8.8,7,8,8,35,15,s
188.426757,85,1,7.1,6.3,7.1,8,50,15,s
504.583759,85,1,7.8,6.8,7.7,8,24,971,l
136.122306,85,1,9.1,7.2,8.3,8.530885,29,13,l
121.336986,85,1,9.1,7.2,8.3,8.530885,29,8,m
461.039006,85,1,9.1,7.2,8.3,8.530885,29,7,s
25.291088,60,1,8.6,7.2,8.4,8.530885,30,0,m
3093.810569,87,1,9.1,7.2,8.3,8.530885,29,23.263212,s
895.658137,85,1,8.5,7.7,8.1,9,13,10,s
2118.54207,88,3,9.2,6.88237,8.4,10,25,167,l
95.850936,60,1,7.8,6.5,7.3,8.530885,20,13,l
622.809072,85,1,7.5,6.88237,8.009683,5,40,7,s
178.299607,85,1,7.7,6.6,7.6,8,17,0,s
114.125347,85,1,9.1,7.2,8.3,8.530885,29,6,l
260.433958,60,1,9.1,7,8.8,8.530885,30,11,l
2339.055095,88,1,7.8,6.88237,8.009683,8,28,0,s
248.343098,85,1,9.1,7.2,8.3,8.530885,29,10,l
34.220997,85,3,7.5,6.9,7.2,9,10,4,s
272.25978,85,1,9.1,7.2,8.3,8.530885,29,5,l
183.042259,89,1,8.3,6.88237,8.009683,9,22,12,s
39.393115,50,3,7.7,6.88237,7.8,9,20,6,m
559.103231,85,1,9.1,7.2,8.3,8.530885,29,19,s
3593.052287,85,1,8,6.4,7.7,6,19,10,s
132.933066,85,1,9.1,7.2,8.3,8.530885,29,6,m
142.165252,85,1,8.3,6.88237,8.1,8.530885,15,0,m
92.930494,85,1,9.1,7.2,8.3,8.530885,29,8,l
98.393883,85,1,8.3,6.88237,8.1,8.530885,15,0,m
3671.802415,88,1,8,6.4,7.7,6,19,0,s
3168.998281,81,1,7.4,6.88237,8.009683,7,55,5,s
181.345165,89,1,8.3,6.88237,8.009683,9,22,15,s
98.805387,89,1,8.8,7.2,8.5,9,22,15,l
2725.499726,50,3,7.3,6.88237,8.009683,10,26.742663,647,s
179.558902,89,1,8.3,6.88237,8.009683,9,22,0,m
74.202343,60,1,7.8,6.5,7.3,8.530885,20,8,l
7266.895588,88,1,9.1,7.2,8.3,8.530885,29,0,s
9544.277325,81,1,9.1,7.2,8.3,8.530885,29,24,m
62.719286,83,3,7.5,6.88237,8.009683,9,20,21,l
52.73694,50,3,7.7,6.88237,7.8,9,20,7,s
116.221624,85,1,9.1,7.2,8.3,8.530885,29,7,m
6.872275,89,1,8,6.7,7.8,8,40,16,m
114.936632,85,1,9.1,7.2,8.3,8.530885,29,13,l
5186.28997,80,1,7.6,7,7.6,8.530885,34,5,s
93.994369,85,1,9.1,7.2,8.3,8.530885,29,0,l
218.274642,60,1,9.1,7,8.8,8.530885,30,9,m
23.99424,50,1,7,6.88237,8.009683,8,21,7,m
13183.95293,89,1,9.1,7.2,8.3,8.530885,29,0,s
7302.288375,81,1,8.6,6.88237,9.1,8.530885,33,0,s
103.782807,85,1,8.4,6.88237,8.4,8.530885,26.742663,94,l
88.638426,85,1,8.1,6.88237,8,8.530885,30,0,s
137.360615,85,1,9.1,7.2,8.3,8.530885,29,11,m
9680.190176,88,1,8,6.6,7.3,7,46,4,s
168.819207,85,1,6.9,6.88237,6.9,8.530885,30,0,s
155.218172,74,1,6.9,6.88237,8.009683,9,26.742663,13,m
99.744672,89,1,8.8,7.2,8.5,9,22,14,l
16990.30236,85,1,9.5,6.88237,8.5,12,33,13,m
298.231372,81,1,8.1,7.1,8.1,8.530885,18,14,m
25.048891,85,5,6.4,6.88237,6.4,8.530885,26.742663,8,l
2557.013942,60,1,9.1,7,8.8,8.530885,30,7,m
58.295417,89,1,8.2,6.88237,8.009683,8,25,18,m
129.999243,85,1,9.1,7.2,8.3,8.530885,29,8,m
30.327823,50,1,7,6.88237,8.009683,8,21,8,m
173.980845,85,1,6,6.88237,6,8.530885,60,5,s
310.502761,85,1,7.5,6.88237,7.5,8.530885,20,0,s
29.602141,60,1,7.1,6.88237,8.009683,8.530885,34,0,s
2369.863589,88,3,9.2,6.88237,8.4,10,25,6,s
3768.362868,80,1,8.6,6.88237,9.1,8.530885,33,0,m
181.778411,89,1,8.3,6.88237,8.009683,9,22,0,m
242.788735,85,1,7.7,6.8,7.7,8,44,26,s
137.409513,85,1,9.1,7.2,8.3,8.530885,29,7,m
9742.419365,81,1,9.1,7.2,8.3,8.530885,29,3,s
50.934542,85,3,7.5,6.9,7.2,9,10,5,l
143.509586,89,1,8.8,7.2,8.5,9,22,0,l
26.633387,84,1,6,6.88237,6,8.530885,26.742663,39,m
262.080931,89,1,8.8,7.2,8.5,9,22,11,l
183.036209,89,1,8.3,6.88237,8.009683,9,22,10,m
110.214492,50,1,8.30368,6.88237,8.009683,9,26.742663,52,s
2725.499726,86,1,7.7,6.5,7.7,8,48,647,s
8159.913247,88,1,8.1,7.7,8.2,8.530885,25,5,s
2498.95266,60,1,9.1,7,8.8,8.530885,30,9,m
2023.643741,85,1,9,6.88237,8.5,7,22,8,s
80.636077,85,1,8.3,6.88237,8.3,8.530885,26.742663,9,l
3956.085177,80,1,8.6,6.88237,9.1,8.530885,33,0,m
3520.082626,88,3,8.6,6.88237,7.3,6,15,11,m
658.321573,88,1,7.7,6.5,7.5,8.530885,14,0,s
97.963079,85,1,9.1,7.2,8.3,8.530885,29,7,l
2108.248009,60,1,9.1,7,8.8,8.530885,30,0,m
8568.412028,85,1,8.1,6.88237,8.009683,9,19,17,s
57.845092,85,1,8.3,6.9,8.1,8.530885,27,10,m
2200.36059,85,1,9.1,7.2,8.3,8.530885,29,24,s
49.25519,83,3,7.5,6.88237,8.009683,9,20,8,s
271.801952,85,1,8.3,6.88237,8.1,8.530885,15,0,m
51.003367,85,3,7.5,6.9,7.2,9,10,5,l
176.780547,86,1,6.8,6.1,6.8,5,46,0,s
3765.591721,80,1,8.6,6.88237,9.1,8.530885,33,0,m
130.407915,85,1,9.1,7.2,8.3,8.530885,29,6,l
692.392328,89,1,8.3,6.88237,8.009683,9,22,0,s
7452.513067,81,3,8.6,6.88237,7.3,6,15,13,m
89.763853,85,1,9.1,7.2,8.3,8.530885,29,9,l
6291.414492,88,1,8.8,7,8,8,35,33,s
169.602564,85,1,7.5,6.88237,7.5,9,10,6,s
10024.53549,88,1,8.1,6.88237,8.009683,9,19,0,s
10923.99252,80,1,8.5,6.88237,8.3,11,70,0,s
121.028947,60,1,8.4,6.9,8.5,8.530885,34,6,m
4815.322592,85,3,7,5.8,7.1,8.530885,25,0,s
12368.35218,89,1,8.8,7,8,8,35,0,s
13238.92006,89,1,8.8,7,8,8,35,0,s
261.034307,60,1,9.1,7,8.8,8.530885,30,11,m
201.985276,81,1,8.1,7.1,8.1,8.530885,18,14,m
115.149683,85,1,8.3,6.88237,8.1,8.530885,15,91,m
45.29866,82,1,7.1,6.4,7.1,8.530885,25,0,s
3009.163516,85,1,8.7,7.7,7.8,6,30,0,s
114.495901,89,1,8.4,6.7,8.2,8,33,11,l
101.322675,85,1,9.1,7.2,8.3,8.530885,29,8,l
557.086798,89,1,8.2,6.88237,7.3,8.530885,35,0,s
188.020355,81,1,8.1,7.1,8.1,8.530885,18,13,m
3644.687082,80,1,8.6,6.88237,9.1,8.530885,33,0,l
3036.085669,81,1,8.1,6.88237,8.009683,9,19,2,s
1832.960276,73,1,8.5,6.88237,8.5,9,26.742663,0,m
7743.478877,81,3,9.2,6.88237,8.4,10,25,0,s
7854.814019,81,1,9,6.88237,8.5,7,22,7,s
88.966905,83,3,8.2,6.5,8.1,9,33,21,m
79.799764,85,1,6.7,6.1,6.8,5,8,0,s
127.281034,85,1,8.3,6.9,8.1,8.530885,27,6,m
17009.90799,85,1,9.5,6.88237,8.5,12,33,13,m
360.222439,85,1,6.7,6.88237,6.7,8.530885,20,0,s
242.63105,85,1,7.7,6.5,7.7,8,48,0,s
116.468215,85,1,6.4,5.8,6.6,8.530885,33,16,s
7422.970479,88,1,8.3,6.5,7.8,8.530885,10,5,s
1983.310435,89,1,8.1,6.88237,7.5,9,38,0,s
5755.359322,80,1,8.5,7.7,8.1,9,13,11,s
3565.527598,80,3,8.6,6.88237,7.3,6,15,25,m
50.778039,85,3,7.5,6.9,7.2,9,10,4,l
9155.77242,81,1,9.5,6.88237,8.5,12,33,17,s
9117.657847,87,1,8.1,6.88237,7.5,9,38,5,s
84.210681,85,1,8.1,6.88237,8,8.530885,30,0,s
1783.384938,60,1,9.1,7,8.8,8.530885,30,8,m
111.719181,85,1,9.1,7.2,8.3,8.530885,29,7,m
7.918383,85,3,7.5,6.9,7.2,9,10,6,m
263.785539,60,1,9.1,7,8.8,8.530885,30,8,l
1786.187267,60,1,9.1,7,8.8,8.530885,30,6,m
2198.715384,81,1,7.9,6.88237,7.9,9,47,0,s
17027.29535,85,1,9.5,6.88237,8.5,12,33,0,s
78.606251,85,1,7.7,6.6,7.6,8,17,19,l
21.752913,74,1,6.3,6.3,6.1,8.530885,14,0,s
73.711601,81,3,6.4,6.88237,6.8,8.530885,33,12,s
10573.90803,80,1,8,6.7,7.8,8,40,0,s
3805.412492,80,3,8.6,6.88237,7.3,6,15,0,l
3433.811264,81,1,8.1,7.1,8.1,8.530885,18,0,s
139.609464,83,3,8.2,6.5,8.1,9,33,8,m
3742.853461,89,1,8.2,6.88237,8.009683,9,47,23.263212,s
10842.4489,80,1,9.5,6.88237,8.5,12,33,11,l
140.606096,74,3,7.1,6.88237,8.009683,9,15,0,s
186.407114,85,1,9.1,7.2,8.3,8.530885,29,11,l
74.713321,85,1,9.1,7.2,8.3,8.530885,29,19,l
21.134548,83,3,6.8,6.88237,6.8,8.530885,40,27,s
5278.279043,80,1,7.2,7.2,7.2,4,65,19,s
182.408923,81,1,8.1,7.1,8.1,8.530885,18,0,m
548.981349,85,1,8.3,6.88237,8.009683,10,40,0,s
30.733706,50,1,7,6.88237,8.009683,8,21,5,s
158.839988,85,1,6.8,6.88237,8.009683,8.530885,40,26,s
23.477297,50,1,7,6.88237,8.009683,8,21,6,s
283.679853,85,1,9.1,7.2,8.3,8.530885,29,10,l
263.140296,85,1,9.1,7.2,8.3,8.530885,29,6,l
318.455561,82,1,7,6.88237,8.009683,2,9,0,s
6262.123522,80,1,7.8,7.1,8,9,59,0,s
151.40435,82,1,8.1,6.8,7.9,8.530885,24,14,m
45.659745,89,1,8.8,7.2,8.5,9,22,12,l
114.086639,85,1,9.1,7.2,8.3,8.530885,29,19,l
131.115187,85,1,9.1,7.2,8.3,8.530885,29,7,s
1962.169671,85,1,7.6,6.88237,8.009683,7,32,12,s
1812.773122,85,1,8.3,6.5,7.8,8.530885,10,21,s
27.969338,85,1,7.9,6.88237,7.9,8.530885,35,10,l
168.865355,89,1,8.3,6.88237,8.009683,9,22,6,m
134.451699,85,1,9.1,7.2,8.3,8.530885,29,8,l
61.749319,83,3,7.5,6.88237,8.009683,9,20,24,l
14.927244,50,3,7,6.88237,7.2,11,40,116,s
2725.499726,85,1,7.6,6.88237,7.3,8.530885,74,647,s
99.493214,85,1,9.1,7.2,8.3,8.530885,29,19,l
183.138858,89,1,8.3,6.88237,8.009683,9,22,16,s
420.26285,86,1,8.2,6.88237,8.009683,6,7,27,s
269.000007,85,1,9.1,7.2,8.3,8.530885,29,5,m
740.619372,85,1,9.1,7.2,8.3,8.530885,29,8,s
11068.17543,88,3,8.2,6.5,8.1,9,33,0,s
289.762951,85,1,8.4,6.88237,8.5,8.530885,15,0,s
97.347249,85,1,9.1,7.2,8.3,8.530885,29,11,l
130.28865,85,1,9.1,7.2,8.3,8.530885,29,7,m
101.154464,85,1,9.1,7.2,8.3,8.530885,29,8,m
89.503743,74,1,7.6,6.3,7.4,10,10,15,s
14515.5165,85,1,7.9,6.88237,7.8,10,43,19,s
902.731274,85,1,7.6,6.5,7.6,6,33,69,s
648.011863,85,1,7.8,6.8,7.7,8,24,10,s
3567.86481,80,1,8.6,6.88237,9.1,8.530885,33,21,s
520.686692,89,1,8.3,6.88237,8.3,11,40,79,m
16764.06916,84,1,8.3,6.88237,8.009683,9,22,0,s
4032.808713,85,3,8.2,6.5,8.1,9,33,0,s
5309.878088,80,1,9,6.88237,8.5,7,22,0,m
727.690757,85,1,7.8,6.8,7.7,8,24,12,s
1622.360982,75,3,7.2,6.88237,8.009683,6,10,0,s
3.349751,89,1,7.5,6.88237,7.5,8,26.742663,0,l
30.649196,50,1,7,6.88237,8.009683,8,21,6,m
5969.89355,80,1,8.1,6.88237,8.009683,9,19,11,s
934.935268,89,1,8.3,6.88237,8.009683,9,22,0,s
17665.2922,85,1,9.5,6.88237,8.5,12,33,91,s
607.657209,89,1,8.8,7.2,8.5,9,22,22,l
429.084419,85,1,8.1,6.88237,8.3,9,45,37,s
418.1954,85,1,9.1,7.2,8.3,8.530885,29,6,l
3565.758088,80,3,8.6,6.88237,7.3,6,15,68,l
210.489816,85,1,9.1,7.2,8.3,8.530885,29,20,l
97.02151,85,1,9.1,7.2,8.3,8.530885,29,6,l
268.216966,85,1,9.1,7.2,8.3,8.530885,29,6,m
10356.16003,80,1,8,6.6,7.3,7,46,11,s
668.804034,81,1,8.1,7.1,8.1,8.530885,18,11,m
91.102569,84,1,7.4,6.88237,8.009683,8.530885,34,0,s
98.128705,85,1,9.1,7.2,8.3,8.530885,29,11,l
233.790017,85,1,8.4,6.88237,8.5,8.530885,15,10,l
2217.767045,88,3,9.2,6.88237,8.4,10,25,0,m
573.813007,81,1,7.4,6.8,8,8.530885,21,3,s
8978.855434,81,1,9.5,6.88237,8.5,12,33,0,m
314.117234,85,1,9.1,7.2,8.3,8.530885,29,8,m
92.855395,85,1,9.1,7.2,8.3,8.530885,29,9,m
1674.385576,60,1,9.1,7,8.8,8.530885,30,7,m
15.356756,84,1,7.1,6.1,7.1,8.530885,32,10,m
10492.76216,89,1,8.1,6.88237,8.009683,9,19,13,s
119.897841,88,1,7.3,6.88237,8.009683,8.530885,28,5,m
310.620372,82,1,7.5,6.88237,8.009683,8.530885,10,9,s
669.329796,85,1,8.2,6.88237,8.009683,6,7,0,s
11078.06646,80,1,8.3,6.88237,8.009683,9,22,0,s
17143.03189,85,1,8.5,6.88237,8.3,11,70,9,s
6514.949713,88,1,8.8,7.2,8.5,9,22,8,s
3918.989463,80,1,7.9,6.88237,8.009683,4,14,0,s
118.523938,85,1,9.1,7.2,8.3,8.530885,29,11,l
1707.311709,60,1,9.1,7,8.8,8.530885,30,0,s
17.853074,60,1,8.6,7.2,8.4,8.530885,30,8,s
183.351162,85,1,7.9,6.88237,7.9,8.530885,35,3,m
310.486935,85,1,8.2,6.88237,8.009683,6,7,50,m
3241.540088,81,1,7.9,6.4,7.4,8,24,5,s
17285.28662,85,1,9.5,6.88237,8.5,12,33,11,m
2725.499726,85,1,8.1,6.88237,8.3,9,45,647,s
4590.236774,60,1,9.1,7,8.8,8.530885,30,3,m
369.100297,85,1,5.7,6.88237,8.009683,8.530885,10,100,s
188.732672,85,1,8.1,6.88237,8.3,9,45,5,m
141.980258,86,1,6.6,6,6.6,5,33,8,s
48.820648,60,3,7.8,6.5,7.5,11,28,0,m
1239.042333,87,1,7.8,6.2,7.2,8.530885,33,23.263212,s
415.432973,89,1,8,6.7,7.8,8,40,0,m
5000.872327,60,1,9.1,7,8.8,8.530885,30,10,l
1758.216273,60,1,9.1,7,8.8,8.530885,30,5,m
379.640437,74,1,7.6,6.3,7.4,10,10,13,s
336.664725,85,1,7.9,6.6,7.9,5,33,0,s
51.059344,85,3,7.5,6.9,7.2,9,10,7,l
222.862876,85,1,7.4,6.2,7.1,8.530885,10,6,s
236.479398,85,1,7.4,6.3,7.2,10,56,71,s
4708.775654,60,1,9.1,7,8.8,8.530885,30,4,m
9196.488596,81,1,9.5,6.88237,8.5,12,33,41,m
131.824983,85,1,9.1,7.2,8.3,8.530885,29,8,s
3832.89234,80,3,8.6,6.88237,7.3,6,15,16,l
2108.448334,60,1,9.1,7,8.8,8.530885,30,0,m
36.851831,50,3,7.7,6.88237,7.8,9,20,20,m
121.001903,85,1,9.1,7.2,8.3,8.530885,29,9,m
7293.624663,81,1,9.1,7.2,8.3,8.530885,29,0,s
105.723423,85,1,9.1,7.2,8.3,8.530885,29,9,m
31.887763,83,1,7.6,6.5,7.7,8.530885,10,40,l
87.233097,85,1,9.1,7.2,8.3,8.530885,29,10,l
655.084556,82,1,7.7,6.88237,8.009683,8.530885,37,0,s
14.403532,85,1,6.2,6.88237,8.009683,8,8,0,s
12274.63839,88,1,9.1,7.2,8.3,8.530885,29,0,s
59.87638,60,1,7.8,6.5,7.3,8.530885,20,5,s
119.166217,85,1,7.1,6.3,7.1,9,9,109,s
17351.3307,85,1,9.5,6.88237,8.5,12,33,1,s
90.497175,85,1,9.1,7.2,8.3,8.530885,29,8,l
1159.748065,60,1,9.1,7,8.8,8.530885,30,0,m
181.53715,89,1,8.3,6.88237,8.009683,9,22,13,m
24.155838,50,3,7.3,6.88237,8.009683,10,26.742663,0,m
437.232552,50,1,8.5,6.88237,8.009683,11,26.742663,8,m
92.915681,85,1,9.1,7.2,8.3,8.530885,29,0,l
265.58977,85,1,9.1,7.2,8.3,8.530885,29,9,l
100.567283,50,3,7.7,6.88237,7.8,9,20,0,m
10801.78635,81,1,9.5,6.88237,8.5,12,33,7,s
147.358654,85,1,9.1,7.2,8.3,8.530885,29,32,l
10641.04349,80,1,9.5,6.88237,8.5,12,33,0,m
2725.499726,81,3,7.1,6.88237,7.2,4,12,647,l
9580.622139,81,1,9.1,7.2,8.3,8.530885,29,9,m
17461.25703,85,1,9.5,6.88237,8.5,12,33,0,m
13110.3937,89,1,9.1,7.2,8.3,8.530885,29,0,l
3961.811932,80,1,6.9,6.88237,8.009683,8,9,0,s
7.031103,85,3,7.5,6.9,7.2,9,10,0,m
7280.906203,87,3,8.2,6.5,8.1,9,33,8,s
66.761263,85,1,6.9,6.88237,8.009683,8.530885,26.742663,19,s
769.46668,86,1,8.8,7,8,8,35,6,s
10864.87234,80,1,8.3,6.88237,8.009683,9,22,0,s
8739.626015,88,1,8,6.6,7.3,7,46,0,s
31.213559,50,1,7,6.88237,8.009683,8,21,6,m
129.640437,85,1,7.5,6.88237,7.5,7,30,0,s
968.835986,81,1,7.1,6.88237,8.009683,2,21,0,s
17028.48341,89,1,9.1,7,8.8,8.530885,30,0,s
1140.940889,85,1,9.1,7.2,8.3,8.530885,29,8,s
263.733455,82,1,7.9,6.88237,7.9,9,47,16,m
727.057344,85,1,6.9,6.7,6.9,8.530885,10,0,s
3733.289566,80,1,8.7,7.7,7.8,6,30,0,s
3805.996936,80,3,8.6,6.88237,7.3,6,15,11,l
314.107074,85,1,9.1,7.2,8.3,8.530885,29,8,m
84.108335,85,1,9.1,7.2,8.3,8.530885,29,8,l
202.511423,81,1,8.1,7.1,8.1,8.530885,18,16,m
103.713238,85,1,9.1,7.2,8.3,8.530885,29,9,l
10568.3728,81,1,9.5,6.88237,8.5,12,33,0,s
129.927519,85,1,9.1,7.2,8.3,8.530885,29,12,m
135.590831,85,1,9.1,7.2,8.3,8.530885,29,10,l
4576.656091,60,1,9.1,7,8.8,8.530885,30,8,l
32.073877,82,1,7.1,6.4,7.1,8.530885,25,8,s
135.202,85,1,8.3,6.9,8.1,8.530885,27,3,s
739.038578,85,1,9.1,7.2,8.3,8.530885,29,292,s
89.02251,85,1,8.2,6.88237,8.2,8.530885,26.742663,20,l
218.809695,82,1,7.3,6.8,7.4,8.530885,16,0,s
158.310215,85,1,8.3,6.88237,8.1,8.530885,15,0,s
32.447149,85,1,7.5,6.88237,8.009683,5,40,7,m
5913.240393,80,1,8,6.5,8,8.530885,33,0,s
6307.355586,80,1,9.1,7.2,8.3,8.530885,29,5,m
653.447618,85,1,7.5,6.88237,7.5,7,30,6,s
6048.160318,60,1,9.1,7,8.8,8.530885,30,12,m
1688.238604,81,1,8.1,7.1,8.1,8.530885,18,25,s
138.346576,85,1,8.3,6.9,8.1,8.530885,27,8,m
9663.62248,88,1,9.5,6.88237,8.5,12,33,53,s
50.94149,60,1,7.8,6.5,7.3,8.530885,20,8,m
267.592506,85,1,9.1,7.2,8.3,8.530885,29,6,l
3665.79405,80,3,8.6,6.88237,7.3,6,15,8,m
51.7038,60,1,7.8,6.5,7.3,8.530885,20,11,l
470.958919,85,1,7.7,6.8,7.7,8,44,0,s
259.704368,60,1,9.1,7,8.8,8.530885,30,7,l
8074.789503,88,1,8.1,7.1,8.1,8.530885,18,0,s
202.60087,82,1,8.1,6.8,7.9,8.530885,24,7,s
7358.740349,81,1,8.8,7.2,8.5,9,22,7,m
81.776619,85,1,6.9,6.4,6.7,10,44,0,s
93.579433,85,1,9.1,7.2,8.3,8.530885,29,10,m
2725.499726,85,1,7.4,6.88237,7.4,8.530885,26.742663,647,m
2494.730471,60,1,9.1,7,8.8,8.530885,30,0,m
9314.714366,81,1,9.5,6.88237,8.5,12,33,0,m
143.817063,89,1,8.3,6.88237,8.009683,9,22,15,l
566.476726,85,1,9.1,7.2,8.3,8.530885,29,4,m
161.915236,84,1,7.4,6.88237,8.009683,8.530885,34,11,s
120.622361,85,1,7.8,6.8,7.7,8,24,0,l
8693.363018,81,3,8.6,6.88237,7.3,6,15,72,m
4916.20775,60,1,9.1,7,8.8,8.530885,30,0,m
125.768385,89,1,7.5,5.8,6.6,4,10,9,m
152.653067,85,1,8.3,6.88237,8.1,8.530885,15,0,m
83.424476,85,1,9.1,7.2,8.3,8.530885,29,5,l
407.356894,85,1,7.7,6.8,7.7,8,44,0,s
13124.61826,87,1,8,6.6,7.3,7,46,8,s
207.622023,85,1,9.1,7.2,8.3,8.530885,29,6,m
361.807795,80,3,7.7,6,7.2,9,2,0,s
1380.050253,89,1,8.3,6.88237,8.009683,9,22,0,s
393.674286,88,1,7.6,6.88237,8.009683,9,15,8,s
181.435472,89,1,8.3,6.88237,8.009683,9,22,15,m
93.402575,85,1,8.1,6.88237,8,8.530885,30,0,l
28.907063,60,1,6.4,6.88237,8.009683,5,14,13,m
8288.651379,73,1,9.1,7.2,8.3,8.530885,29,6,s
132.674052,85,1,9.1,7.2,8.3,8.530885,29,7,l
548.074429,85,1,9.1,7.2,8.3,8.530885,29,8,m
385.677732,85,1,9.1,7.2,8.3,8.530885,29,8,m
150.238034,82,1,7,6,7,8.530885,34,20,s
53.632688,85,3,7.5,6.9,7.2,9,10,16,l
17068.1046,85,1,9.5,6.88237,8.5,12,33,13,s
464.32347,85,1,8.1,6.88237,8.3,9,45,35,s
18.757671,50,1,6.8,6.88237,8.009683,9,26.742663,0,l
16970.24726,85,1,9.5,6.88237,8.5,12,33,218,m
184.155323,81,1,8.1,7.1,8.1,8.530885,18,23,l
3651.900592,80,3,8.6,6.88237,7.3,6,15,0,l
41.303248,60,1,7.8,6.5,7.3,8.530885,20,6,m
50.291512,83,3,7.5,6.88237,8.009683,9,20,18,m
851.286217,87,1,7.9,6.88237,8.009683,6,109,0,s
128.331833,85,1,9.1,7.2,8.3,8.530885,29,9,l
1920.958263,88,3,9.2,6.88237,8.4,10,25,0,l
117.21198,84,1,7.4,6.88237,8.009683,8.530885,34,13,s
106.536877,85,1,9.1,7.2,8.3,8.530885,29,9,l
17665.81258,85,1,9.5,6.88237,8.5,12,33,0,m
3574.592425,80,3,8.6,6.88237,7.3,6,15,18,m
5901.824512,60,1,9.1,7,8.8,8.530885,30,0,m
5631.511022,88,1,8.2,6.88237,8.009683,8,25,0,s
47.346022,89,1,8.3,6.88237,8.009683,9,22,0,m
88.888024,87,1,7.9,6.88237,8.009683,4,14,23.263212,s
9889.689244,81,1,9,6.88237,8.5,7,22,36,s
609.844004,60,1,9.1,7,8.8,8.530885,30,15,l
45.15319,84,1,6.6,6.2,6.6,7,26,8,s
2448.370326,87,1,8.8,7,8,8,35,0,s
3531.874531,80,1,8.6,6.88237,9.1,8.530885,33,0,l
2329.197033,85,1,7.5,6.5,7.5,4,11,0,s
793.472245,60,1,9.1,7,8.8,8.530885,30,13,m
6043.251291,60,1,9.1,7,8.8,8.530885,30,0,m
27.760601,50,1,7,6.88237,8.009683,8,21,9,m
13.890346,50,1,6.6,6.88237,8.009683,7,7,3,s
92.655342,60,1,8.6,7.2,8.4,8.530885,30,10,m
3657.719038,80,3,8.6,6.88237,7.3,6,15,0,l
594.559161,85,1,7,5.8,7,8.530885,15,20,s
2309.753887,85,1,9,6.88237,8.5,7,22,9,m
4279.833931,80,1,7.6,6.6,7.5,8.530885,17,6,s
5189.948749,87,1,8.2,6.88237,8.3,8.530885,33,0,s
182.005852,85,1,7.9,6.88237,7.6,8.530885,26.742663,44,s
3668.075319,80,3,8.6,6.88237,7.3,6,15,29,m
134.217218,85,1,9.1,7.2,8.3,8.530885,29,7,l
135.202,85,1,8.3,6.9,8.1,8.530885,27,3,s
4670.430306,85,1,7.9,6.3,7.9,6,48,67,s
550.763841,85,1,7,5.8,7,8.530885,15,0,s
6355.675925,88,1,8.2,6.88237,7.8,9,30,4,s
96.079213,60,1,7.8,6.5,7.3,8.530885,20,16,s
3765.189589,80,1,8.6,6.88237,9.1,8.530885,33,0,m
87.880877,85,1,9.1,7.2,8.3,8.530885,29,9,m
568.418997,60,1,9.1,7,8.8,8.530885,30,6,m
195.424125,81,1,8.1,7.1,8.1,8.530885,18,18,m
36.067787,85,1,8.1,6.88237,8,8.530885,30,0,m
271.533807,75,3,7.2,6.88237,8.009683,6,10,0,m
11148.69169,80,1,9.5,6.88237,8.5,12,33,13,m
856.281616,85,1,5.7,5.4,5.1,8.530885,33,34,s
181.559962,89,1,8.3,6.88237,8.009683,9,22,15,l
4259.761765,60,1,8.6,7.2,8.4,8.530885,30,6,s
66.637899,85,3,7.5,6.9,7.2,9,10,7,m
3119.338625,85,1,7.3,6.88237,7.3,8.530885,36,80,s
181.483126,89,1,8.3,6.88237,8.009683,9,22,15,s
10840.66097,80,1,8.8,7.2,8.5,9,22,0,s
256.620095,81,1,7.8,6.5,7.7,8.530885,12,0,s
134.080251,85,1,9.1,7.2,8.3,8.530885,29,6,m
9697.603464,81,1,9.1,7.2,8.3,8.530885,29,3,m
112.491747,85,3,7.5,6.9,7.2,9,10,0,s
198.83215,85,1,8.1,6.88237,8,8.530885,30,46,s
6232.766711,80,1,9.1,7.2,8.3,8.530885,29,7,m
45.340961,89,1,8.3,6.88237,8.009683,9,22,19,l
8758.012203,81,1,9.5,6.88237,8.5,12,33,10,m
100.680933,85,1,9.1,7.2,8.3,8.530885,29,7,m
48.993126,60,1,7.8,6.5,7.3,8.530885,20,3,s
3879.419885,84,1,9.1,7.2,8.3,8.530885,29,455,s
4403.605603,80,1,7.6,6.4,7.6,6,50,6,s
420.037459,85,1,9.1,7.2,8.3,8.530885,29,4,m
21.000655,82,1,7.1,6.4,7.1,8.530885,25,0,m
626.669902,85,1,9.1,7.2,8.3,8.530885,29,3,m
263.291915,60,1,9.1,7,8.8,8.530885,30,7,l
11858.83617,87,1,8.3,6.88237,8.009683,9,22,14,s
36.249298,60,3,7.8,6.5,7.5,11,28,7,m
2583.084603,60,1,9.1,7,8.8,8.530885,30,0,s
5418.084634,80,1,8.3,7.3,8.1,9,14,47,s
3213.596554,84,1,9.1,7.2,8.3,8.530885,29,0,s
5487.207503,80,1,7,6.88237,8.009683,8.530885,29,0,s
122.8524,85,1,9.1,7.2,8.3,8.530885,29,8,m
664.444775,60,1,9.1,7,8.8,8.530885,30,12,s
4079.814679,85,1,8,6.4,7.7,6,19,100,s
7386.048177,81,1,8.8,7.2,8.5,9,22,20,s
4.534782,85,3,7.5,6.9,7.2,9,10,18,l
185.700691,81,1,8.1,7.1,8.1,8.530885,18,11,l
34.282992,86,1,7.8,6.3,7.6,7,33,0,l
4313.826278,80,1,8.1,7.1,8.1,8.530885,18,5,s
95.712933,81,3,6.4,6.88237,6.8,8.530885,33,86,s
15161.11613,89,1,8.8,7,8,8,35,0,s
133.549907,85,1,9.1,7.2,8.3,8.530885,29,6,l
198.459973,81,1,8.1,7.1,8.1,8.530885,18,17,m
84.204672,82,1,7.3,6.88237,7.3,6,35,99,s
3206.786451,87,1,8.3,6.5,7.8,8.530885,10,0,s
48.369869,60,1,7.8,6.5,7.3,8.530885,20,10,m
2725.499726,85,1,8.3,6.88237,8.1,8.530885,15,647,s
115.018021,85,1,9.1,7.2,8.3,8.530885,29,13,l
2500.698472,60,1,9.1,7,8.8,8.530885,30,18,m
645.9677,88,1,7.7,6.5,7.5,8.530885,14,4,s
263.811318,60,1,9.1,7,8.8,8.530885,30,7,l
193.731372,85,1,6.8,6.88237,8.009683,8.530885,40,26,s
1796.66712,60,1,9.1,7,8.8,8.530885,30,5,l
331.846024,85,1,8.2,6.88237,8.009683,6,7,0,s
361.554883,89,1,7.7,6.5,7.3,8,33,0,s
168.670248,85,1,7.5,6.88237,7.5,9,10,92,s
589.977737,89,1,9.5,6.88237,8.5,12,33,0,s
8635.816673,88,1,8.2,7.6,7.9,8.530885,35,0,s
7509.081848,88,1,8.5,6.88237,8.5,11,25,5,s
127.533046,85,1,9.1,7.2,8.3,8.530885,29,6,m
118.806128,85,1,9.1,7.2,8.3,8.530885,29,5,m
630.766033,85,1,7.8,6.8,7.7,8,24,81,s
88.136483,85,1,9.1,7.2,8.3,8.530885,29,6,m
183.188967,89,1,8.3,6.88237,8.009683,9,22,15,s
5309.789146,80,1,9,6.88237,8.5,7,22,0,m
5591.616054,88,1,8.2,6.88237,8.009683,8,25,23.263212,s
229.886047,85,1,9.1,7.2,8.3,8.530885,29,11,s
359.062573,85,1,9.1,7.2,8.3,8.530885,29,9,m
9616.234351,73,1,8.1,6.88237,8.009683,8.530885,48,0,s
90.604947,85,1,6.4,6.88237,8.009683,8.530885,12,0,s
6582.610046,85,1,7.5,6.4,7.3,8.530885,33,95,s
5062.455613,88,1,8.3,6.5,7.8,8.530885,10,72,s
17285.09182,85,1,9.5,6.88237,8.5,12,33,0,m
98.371613,86,1,8.3,6.5,7.8,8.530885,10,0,l
12410.31639,89,1,7.6,6.4,7.3,8.530885,45,0,s
224.984651,60,1,7.7,6.1,7.2,8.530885,20,7,m
2725.499726,84,1,6.9,6.88237,8.009683,9,26,647,s
1116.995712,81,1,7.3,6.8,7.4,8.530885,16,0,s
6574.908967,81,1,9.1,7,8.8,8.530885,30,0,s
723.60614,85,1,7,6.88237,8.009683,8.530885,29,0,s
190.347205,85,1,8.2,6.88237,8.009683,6,7,12,s
1748.74492,60,1,9.1,7,8.8,8.530885,30,3,m
267.104158,85,1,6.3,5.9,6.3,5,10,8,s
8480.415124,88,1,8.1,7.1,8.1,8.530885,18,12,s
318.437197,60,1,7.8,5.7,7.2,8.530885,18,0,m
116.989811,85,1,9.1,7.2,8.3,8.530885,29,11,l
259.909885,85,1,8,6.88237,8,5,26.742663,0,m
15066.888,85,1,8.1,6.6,7.6,9,13,0,s
15819.57044,85,1,8.1,6.6,7.6,9,13,67,s
46.100219,82,1,8.1,6.8,7.9,8.530885,24,18,l
72.837559,85,1,6.9,6.88237,8.009683,8.530885,60,0,s
9182.676053,88,1,8.3,6.88237,8.009683,9,22,0,s
744.05228,85,1,9.1,7.2,8.3,8.530885,29,5,s
114.488606,85,1,9.1,7.2,8.3,8.530885,29,5,l
102.757981,85,1,9.1,7.2,8.3,8.530885,29,7,m
181.480615,89,1,8.3,6.88237,8.009683,9,22,22,s
105.805487,85,1,9.1,7.2,8.3,8.530885,29,16,l
673.397048,60,1,7.8,6.88237,8.009683,5,24,0,s
152.287526,85,1,9.1,7.2,8.3,8.530885,29,10,m
118.281742,86,1,7,6.3,7,5,41,8,s
806.105508,85,1,7.4,6.6,7.4,10,66,0,s
440.125535,85,1,6.4,6,6.4,8.530885,10,0,s
363.948011,81,1,7.5,6.5,7.5,4,11,10,m
28.613951,82,3,7,5.8,7.1,8.530885,25,16,m
33.901876,82,3,7,5.8,7.1,8.530885,25,8,l
392.166434,85,1,7.5,6.4,7.5,6,33,6,s
8688.734797,81,1,8.3,6.88237,8.009683,9,22,2,s
14153.63579,89,1,7.8,6.2,7.2,8.530885,33,0,s
121.799985,85,1,9.1,7.2,8.3,8.530885,29,11,s
844.18548,86,1,9.1,7.2,8.3,8.530885,29,7,s
88.581484,85,1,6.3,6.88237,8.009683,8.530885,40,0,s
746.940527,85,1,7.5,6.4,7.5,6,33,0,s
19.815838,84,1,6.7,6.3,6.6,8,11,0,s
27.956902,83,1,7.9,6.3,7.6,6,24,10,m
5381.930079,80,1,7.9,6.4,7.4,8,24,6,s
195.340913,81,1,8.1,7.1,8.1,8.530885,18,24,m
178.657183,89,1,8.3,6.88237,8.009683,9,22,12,m
197.250852,85,1,7,6.6,7,8.530885,23,0,s
89.338318,50,1,6.6,6.88237,8.009683,7,17,11,s
100.232384,81,1,7.8,6.88237,8.009683,9,15,6,m
182.403803,89,1,8.3,6.88237,8.009683,9,22,10,m
311.51751,85,1,8.4,6.88237,8.5,8.530885,15,8,m
60.380912,82,1,8.1,6.8,7.9,8.530885,24,13,l
278.339908,85,1,8.4,6.88237,8.5,8.530885,15,0,m
144.266305,89,1,8.3,6.88237,8.009683,9,22,13,m
10801.29895,81,1,9.5,6.88237,8.5,12,33,0,s
539.480174,85,1,7.4,6.88237,7.4,8.530885,60,72,s
16952.83302,85,1,9.1,6.88237,8.7,11,26.742663,39,m
1799.370674,60,1,9.1,7,8.8,8.530885,30,9,m
3097.333342,88,3,9.2,6.88237,8.4,10,25,9,s
22.913841,50,1,7,6.88237,8.009683,8,21,6,m
10299.43965,81,1,8.5,6.88237,8.3,11,70,0,s
49.928834,89,1,8.5,6.88237,8.5,11,30,24,m
3668.897868,80,3,8.6,6.88237,7.3,6,15,16,m
8274.194848,81,1,8.8,7.2,8.5,9,22,0,s
4064.630877,84,1,8.8,7,8,8,35,0,s
2168.840668,74,1,7.6,6.3,7.4,10,10,0,s
10682.06782,81,1,9.5,6.88237,8.5,12,33,24,s
253.809866,85,1,8.2,6.88237,8.009683,6,7,48,m
10181.68138,88,1,8.8,7.2,8.5,9,22,0,s
17662.99234,85,1,9.5,6.88237,8.5,12,33,7,s
331.475077,85,1,7.5,6.88237,8.009683,5,40,233,s
541.032448,85,1,7.1,6.3,7.1,8,50,0,s
2021.80957,60,1,9.1,7,8.8,8.530885,30,16,m
2981.608468,89,1,8.2,6.88237,8.009683,8,25,8,s
16563.35354,86,1,9.5,6.88237,8.5,12,33,460,s
44.386358,85,1,7,6.88237,7,8.530885,34,171,s
154.258439,85,1,8.2,6.88237,8.009683,6,7,7,m
173.085276,85,1,8.2,6.88237,8.009683,6,7,0,m
16886.58017,85,1,9.5,6.88237,8.5,12,33,0,m
743.560974,85,1,6.9,6.88237,8.009683,8,9,0,s
230.199601,85,1,9.1,7.2,8.3,8.530885,29,6,l
10413.82556,88,1,9.1,7.2,8.3,8.530885,29,4,s
2390.425894,88,1,8.2,6.88237,8.009683,8,32,0,s
181.826592,81,1,8.1,7.1,8.1,8.530885,18,19,l
3481.424609,80,3,8.6,6.88237,7.3,6,15,0,l
122.589163,85,1,9.1,7.2,8.3,8.530885,29,9,m
6132.753589,80,1,9.1,7.2,8.3,8.530885,29,16,s
253.887233,85,1,8.4,6.88237,8.5,8.530885,15,0,l
3015.893215,85,1,8.3,7.3,8.1,9,14,8,s
242.063437,85,1,6.4,6,6.3,8.530885,13,0,s
3916.646431,85,1,7.6,6.6,7.5,8.530885,17,0,s
2714.092426,85,1,8.8,7,8,8,35,0,s
7355.683791,88,1,9.1,7.2,8.3,8.530885,29,0,s
169.3915,85,1,7,6.88237,7,8.530885,34,241,s
1133.418737,86,3,7.5,6.9,7.2,9,10,0,s
72.005877,85,1,7.9,6.88237,7.9,8.530885,35,0,s
186.405687,85,1,9.1,7.2,8.3,8.530885,29,13,l
698.019357,85,1,8.3,6.88237,8.009683,10,40,20,s
5147.835487,60,1,9.1,7,8.8,8.530885,30,0,m
5112.338611,87,1,9.1,7.2,8.3,8.530885,29,88,s
87.243053,85,1,9.1,7.2,8.3,8.530885,29,8,l
76.884232,85,1,7.7,6.6,7.6,8,17,0,m
5905.190596,80,4,7.9,6.88237,7.9,8.530885,26.742663,217,s
386.624407,89,1,8.8,7.2,8.5,9,22,13,m
348.767887,86,1,8.8,7,8,8,35,8,l
11.749018,89,1,8.2,6.88237,8.2,11,26.742663,0,l
16828.73366,85,1,9.5,6.88237,8.5,12,33,0,m
127.413294,85,1,9.1,7.2,8.3,8.530885,29,9,l
410.587265,85,1,9.1,7.2,8.3,8.530885,29,0,m
174.194238,81,1,8.1,7.1,8.1,8.530885,18,0,l
2694.028426,85,1,8.8,7,8,8,35,7,s
15695.68293,85,1,8.4,6.7,8.2,8,33,0,s
16995.32737,85,1,9.5,6.88237,8.5,12,33,14,m
13329.5114,88,1,8.1,6.88237,8.009683,8.530885,48,0,s
10440.58578,88,3,8.2,6.5,8.1,9,33,0,s
313.128696,85,1,8.3,6.88237,8.1,8.530885,15,0,s
7186.84995,88,1,9.1,7.2,8.3,8.530885,29,0,s
239.871034,85,1,8.4,6.88237,8.5,8.530885,15,19,m
6307.61712,80,1,9.1,7.2,8.3,8.530885,29,0,m
1268.691237,89,1,8.3,6.88237,8.009683,9,22,0,s
186.029972,82,1,8.1,6.8,7.9,8.530885,24,21,m
17662.82073,85,1,9.5,6.88237,8.5,12,33,108,s
1486.5845,85,1,8.2,6.88237,8.009683,6,7,11,s
98.236254,89,1,8.8,7.2,8.5,9,22,15,m
1388.050895,60,1,9.1,7,8.8,8.530885,30,4,s
30.654777,50,1,7,6.88237,8.009683,8,21,5,s
10924.96896,88,1,9.1,7.2,8.3,8.530885,29,0,m
208.89382,81,1,8.1,7.1,8.1,8.530885,18,22,m
7729.804409,81,1,8.2,6.88237,8.009683,6,7,0,s
56.13808,87,3,9.2,6.88237,8.4,10,25,4,l
90.415877,85,1,9.1,7.2,8.3,8.530885,29,12,m
5978.697381,80,1,9.1,7.2,8.3,8.530885,29,0,m
699.798931,86,1,9.1,7.2,8.3,8.530885,29,5,m
17.274437,85,3,7.5,6.9,7.2,9,10,8,m
2108.992029,85,1,9,6.88237,8.5,7,22,0,m
110.435607,85,1,8.3,6.9,8.1,8.530885,27,4,s
2121.103268,81,1,7.4,6.3,7.4,6,73,18,s
30.842024,50,3,7,6.88237,7.2,11,40,9,s
133.331542,89,1,8.8,7.2,8.5,9,22,8,l
2001.747251,88,1,8.2,6.88237,8.009683,9,47,2,s
304.22873,87,3,8.2,6.88237,8.6,11,60,439,s
2725.499726,85,1,7.5,6.88237,8.009683,5,40,647,s
494.172952,85,1,6.9,6.88237,8.009683,8,9,0,s
121.192028,85,1,7.1,6.88237,8.009683,8.530885,20,0,s
81.817882,85,1,7.1,6.4,6.9,8.530885,28,0,m
7613.599041,81,1,9.5,6.88237,8.5,12,33,70,m
9610.375097,81,1,8.3,6.88237,8.009683,9,22,3,s
937.119638,84,1,7.5,6.88237,8.009683,5,40,33,s
4684.97383,88,3,7.7,6,7.2,9,2,0,s
9.342181,85,3,7.5,6.9,7.2,9,10,6,m
80.583532,85,1,9.1,7.2,8.3,8.530885,29,7,l
96.435865,85,1,9.1,7.2,8.3,8.530885,29,10,s
284.260043,85,1,8.4,6.88237,8.5,8.530885,15,37,l
3803.26692,85,3,8.2,6.5,8.1,9,33,12,s
373.564125,85,1,9.1,7.2,8.3,8.530885,29,10,m
88.669433,50,1,6.6,6.88237,8.009683,7,17,3,s
96.741812,85,1,9.1,7.2,8.3,8.530885,29,7,l
4057.577062,60,1,8.6,7.2,8.4,8.530885,30,0,s
172.501041,81,1,8.1,7.1,8.1,8.530885,18,1,l
60.630364,82,1,8.1,6.8,7.9,8.530885,24,20,l
67.415593,89,1,8,6.7,7.9,8,39,15,l
2018.307331,60,1,9.1,7,8.8,8.530885,30,11,m
258.3232,60,1,9.1,7,8.8,8.530885,30,8,s
6274.65816,80,1,9.1,7.2,8.3,8.530885,29,5,m
785.548973,84,3,7.5,6.9,7.2,9,10,10,s
69.248106,83,3,7.5,6.88237,8.009683,9,20,11,m
183.20064,89,1,8.3,6.88237,8.009683,9,22,10,s
5920.758714,85,3,9.2,6.88237,8.4,10,25,0,s
182.932132,89,1,8.3,6.88237,8.009683,9,22,15,m
109.199977,85,1,8.1,6.88237,8,8.530885,30,4,m
524.306244,82,1,6.4,6.2,6.2,8.530885,32,0,s
153.082651,85,1,8.3,6.9,8.1,8.530885,27,3,m
6835.052649,81,1,9.1,7,8.8,8.530885,30,0,s
37.620883,88,1,7.4,6.88237,8.009683,8.530885,26,5,s
312.088587,85,1,7.7,6.6,7.6,8,17,0,s
181.892415,89,1,8.3,6.88237,8.009683,9,22,5,l
29.204044,82,1,8,6,8.2,8.530885,17,17,s
55.689749,85,1,7.5,6.88237,8.009683,5,40,11,m
695.461999,86,1,9.1,7.2,8.3,8.530885,29,10,m
25.096896,88,1,7.7,6.5,7.5,8.530885,14,24,l
3665.096178,80,3,8.6,6.88237,7.3,6,15,137,m
124.782093,85,1,9.1,7.2,8.3,8.530885,29,9,m
181.488745,89,1,8.3,6.88237,8.009683,9,22,19,m
1647.575985,85,1,8.1,6.88237,8,8.530885,30,55,l
3.03752,85,1,8.30368,6.88237,8.009683,8.530885,26.742663,0,l
189.012802,85,1,9.1,7.2,8.3,8.530885,29,8,l
268.559519,60,1,7.8,5.7,7.2,8.530885,18,6,m
647.286279,87,1,7.8,7.9,7.5,5,50,20,s
5330.926107,88,1,7.5,6.88237,8.009683,6,57,12,s
5203.223923,80,1,8.3,6.5,7.8,8.530885,10,0,s
36.97631,88,1,7.7,6.5,7.5,8.530885,14,18,l
5830.492044,80,1,8.3,6.88237,7.6,8.530885,26.742663,0,s
4560.405707,88,3,9.2,6.88237,8.4,10,25,10,s
5364.69491,80,1,7.9,6.4,7.4,8,24,6,s
1966.459325,85,1,9,6.88237,8.5,7,22,0,s
208.542834,85,1,7.4,6.88237,7.4,8.530885,60,0,s
147.804825,85,1,9.1,7.2,8.3,8.530885,29,0,l
131.418559,89,1,8.2,6.88237,8.009683,8,25,8,m
4014.288544,87,1,9,6.88237,8.5,7,22,5,s
77.580487,85,1,8.4,6.88237,8.4,8.530885,26.742663,12,l
135.074743,85,1,9.1,7.2,8.3,8.530885,29,7,s
9332.449381,81,1,9.1,7,8.8,8.530885,30,0,s
4975.735716,87,1,9.1,7.2,8.3,8.530885,29,9,s
13303.44676,89,1,9.1,7.2,8.3,8.530885,29,0,m
105.624245,85,1,7.7,6.88237,8.009683,8.530885,40,20,s
16694.27985,85,1,9.5,6.88237,8.5,12,33,0,m
12199.30215,82,1,8,6.6,7.3,7,46,0,s
1824.218084,60,1,9.1,7,8.8,8.530885,30,7,m
7585.541158,81,1,9.5,6.88237,8.5,12,33,4,m
128.629225,85,1,9.1,7.2,8.3,8.530885,29,7,m
134.964282,85,1,9.1,7.2,8.3,8.530885,29,9,m
82.999211,85,1,9.1,7.2,8.3,8.530885,29,20,l
65.556467,82,1,7.6,6.5,7.8,8.530885,13,4,s
32.773787,85,1,6.9,6.4,6.7,10,44,35,s
15774.44025,89,1,8.8,7,8,8,35,0,s
3324.546954,85,1,7.8,7.1,8,9,59,6,s
7235.714251,88,1,8.3,6.5,7.8,8.530885,10,0,s
273.727397,85,1,8.4,6.88237,8.5,8.530885,15,33,m
2548.303583,81,1,8.1,6.8,7.9,8.530885,24,0,s
2706.323563,60,1,8.6,7.2,8.4,8.530885,30,0,s
10.339024,85,3,7.5,6.9,7.2,9,10,7,m
11.158925,40,1,6.6,6.88237,6.6,8,38,303,m
448.923856,89,1,8.2,6.88237,8.009683,8,25,10,s
4291.351008,85,1,8.6,6.88237,9.1,8.530885,33,67,s
6379.852007,88,1,8.3,7.3,8.1,9,14,4,s
5374.2053,87,1,8.3,7.3,8.1,9,14,5,s
298.999377,75,3,7.2,6.88237,8.009683,6,10,0,l
159.654101,85,1,7.1,6.4,7.4,8.530885,33,16,s
2476.435378,60,1,9.1,7,8.8,8.530885,30,13,m
203.984404,85,1,7.4,6.88237,7.4,8.530885,60,26,m
279.725579,86,1,9,6.88237,8.5,7,22,6,l
127.193981,85,1,9.1,7.2,8.3,8.530885,29,9,m
133.537548,85,1,9.1,7.2,8.3,8.530885,29,9,s
5309.789146,80,1,9,6.88237,8.5,7,22,0,m
316.697559,50,3,7,6.88237,7.2,11,40,17,s
254.17683,60,1,9.1,7,8.8,8.530885,30,10,l
9544.997722,81,1,9.1,7.2,8.3,8.530885,29,29,m
214.326878,85,1,9.1,7.2,8.3,8.530885,29,16,l
47.380421,89,1,8.8,7.2,8.5,9,22,26,l
574.589886,88,1,7,6.88237,7,8.530885,80,6,l
7287.809977,88,1,9.1,7.2,8.3,8.530885,29,0,s
184.214626,81,1,8.1,7.1,8.1,8.530885,18,25,l
67.697294,60,1,7.8,6.5,7.3,8.530885,20,0,s
10536.22355,80,1,8.2,6.88237,8.009683,8,25,6,s
9561.076117,87,1,8.1,6.88237,8.009683,9,19,15,s
8606.414576,81,1,9.1,7,8.8,8.530885,30,6,s
181.498384,89,1,8.3,6.88237,8.009683,9,22,14,m
73.537337,85,1,8.3,6.88237,8.1,8.530885,15,13,l
3576.230996,89,1,8.8,7.2,8.5,9,22,11,m
125.150702,86,1,8.3,6.5,7.8,8.530885,10,14,l
4131.612741,80,1,7.7,6.5,7.5,8.530885,14,6,s
3715.428143,85,1,7.4,6.9,7.5,8.530885,36,8,s
131.448164,85,1,9.1,7.2,8.3,8.530885,29,10,m
4401.19481,80,3,9.2,6.88237,8.4,10,25,79,s
2108.269333,60,1,9.1,7,8.8,8.530885,30,0,m
24.341006,50,1,7,6.88237,8.009683,8,21,7,m
231.160708,85,1,8.4,6.88237,8.5,8.530885,15,0,m
3596.285969,80,1,7.6,6.88237,8.009683,8,33,0,s
1803.014975,81,1,7.7,6.88237,8.009683,7,10,1,s
134.037226,85,1,7.8,6.8,7.7,8,24,28,s
17.617619,85,3,7.5,6.9,7.2,9,10,5,m
244.408615,85,1,7.7,6.88237,7.7,8.530885,26.742663,0,m
10130.7294,89,3,9.2,6.88237,8.4,10,25,0,s
144.855358,89,1,8.8,7.2,8.5,9,22,0,m
440.114527,85,1,9.1,7.2,8.3,8.530885,29,0,m
323.057079,85,1,7.9,6.88237,7.9,8.530885,35,67,s
275.003463,85,1,9.1,7.2,8.3,8.530885,29,11,l
2667.63362,88,3,9.2,6.88237,8.4,10,25,4,m
6.250467,84,1,6,6.88237,6,8,26.742663,20,s
191.185046,85,1,7.8,6.8,7.7,8,24,96,m
69.623271,83,3,7.5,6.88237,8.009683,9,20,13,s
133.201263,85,1,9.1,7.2,8.3,8.530885,29,7,m
120.180154,85,1,9.1,7.2,8.3,8.530885,29,8,l
6089.980909,85,3,7.7,6,7.2,9,2,0,s
420.813132,87,3,8.6,6.88237,7.3,6,15,390,m
9849.255525,81,1,9.1,7.2,8.3,8.530885,29,0,s
4581.989973,81,1,7.6,6.4,7.6,6,50,0,s
276.722922,85,1,8.3,6.88237,8.1,8.530885,15,0,m
188.616152,85,1,9.1,7.2,8.3,8.530885,29,12,l
409.731835,85,1,9.1,7.2,8.3,8.530885,29,0,s
635.49659,83,3,7.8,6.5,7.5,11,28,7,s
1642.345377,60,1,9.1,7,8.8,8.530885,30,7,l
247.277677,85,1,9.1,7.2,8.3,8.530885,29,10,l
9870.779553,88,1,8.3,6.88237,8.009683,9,22,12,s
5410.20918,88,1,8,6.7,7.9,8,39,0,s
106.593026,85,1,9.1,7.2,8.3,8.530885,29,8,l
699.133407,85,1,7.8,6.8,7.7,8,24,14,m
2815.99287,87,1,7.7,6.5,7.5,8.530885,14,0,s
101.831919,85,1,9.1,7.2,8.3,8.530885,29,7,m
3805.412492,80,3,8.6,6.88237,7.3,6,15,0,m
13302.52039,89,1,9.1,7.2,8.3,8.530885,29,0,m
212.265463,85,1,7.7,6.88237,7.7,8.530885,26.742663,259,m
3744.052987,80,3,8.6,6.88237,7.3,6,15,4,l
113.772368,84,1,8,6.4,7.9,6,33,0,l
8640.81091,88,1,9.1,7.2,8.3,8.530885,29,8,s
85.468375,85,1,7.2,6.7,7,8.530885,14,72,s
262.523832,89,1,8.8,7.2,8.5,9,22,10,l
131.49712,85,1,9.1,7.2,8.3,8.530885,29,8,s
115.792292,85,1,9.1,7.2,8.3,8.530885,29,10,l
48.754134,85,1,6.9,6.88237,6.9,8.530885,26.742663,21,m
2209.363044,86,1,9.1,7.2,8.3,8.530885,29,0,s
389.737609,85,1,8.1,6.88237,8.3,9,45,19,s
69.37644,83,3,7.5,6.88237,8.009683,9,20,11,m
64.958469,82,3,7,5.8,7.1,8.530885,25,16,s
105.588001,89,1,8.3,6.88237,8.009683,9,22,14,s
583.232704,85,1,9.1,7.2,8.3,8.530885,29,0,m
35.259025,85,3,7.5,6.9,7.2,9,10,2,s
5692.552855,84,1,8.8,7,8,8,35,0,s
88.748238,85,1,9.1,7.2,8.3,8.530885,29,11,m
388.278787,85,1,8.4,6.88237,8.5,8.530885,15,3,m
2132.577905,60,1,9.1,7,8.8,8.530885,30,6,l
21.119326,88,1,7,6.88237,8.009683,7,20,8,s
10568.70753,81,1,8.2,6.88237,8.009683,9,47,2,s
2199.939393,87,1,8.8,7,8,8,35,0,s
18.434778,50,1,7.6,6.3,7.8,10,13,7,s
81.447274,83,1,8.3,6.88237,8.3,9,100,14,m
50.958417,86,1,6.2,5.3,6.2,8.530885,5,3,s
229.849791,85,1,7,6.3,6.7,6,46,95,s
183.030372,89,1,8.3,6.88237,8.009683,9,22,11,s
125.592418,85,1,7.8,6.8,7.7,8,24,0,m
1797.553533,60,1,9.1,7,8.8,8.530885,30,12,l
16930.07428,85,1,8,6.7,7.8,8,40,5,s
120.332935,85,1,9.1,7.2,8.3,8.530885,29,7,l
150.657274,86,1,9,6.88237,8.5,7,22,6,l
267.501147,85,1,9.1,7.2,8.3,8.530885,29,8,m
13155.27103,89,1,9.1,7.2,8.3,8.530885,29,0,s
7.736396,85,3,7.5,6.9,7.2,9,10,2,m
